Runtime information:
* Directory : /home/ICN2/jgarridoa/aiida_run/7b/89/4abb-7e9a-4050-ba4d-2ad1e57c0a42
>> Start of run:  22-APR-2024   3:17:53

reinit: Reading from standard input
reinit: Dumping input in INPUT_TMP.08415
************************** Dump of input data file ****************************
atomiccoordinatesformat Ang
cdfsave True
dminitspinaf False
dmmixingweight 0.025
dmmixscf1 True
dmnumberpulay 10
dmtolerance 1e-05
electronictemperature 50.000 K
geometrymustconverge T
latticeconstant 1.0 Ang
maxscfiterations 1000
meshcutoff 400 Ry
noncollinearspin False
numberofatoms 2
numberofspecies 1
savehs True
solutionmethod diagon
spinorbit False
spinpolarized False
systemlabel aiida
systemname aiida
usetreetimer T
writedmhsnetcdf True
writeorbmom True
xcauthors PBEsol
xcfunctional GGA
xmlwrite T
#
# -- Basis Set Info follows
#
PAO-BasisSize DZP
PAO-SplitNorm 0.15
PAO-EnergyShift 0.005 Ry
#
# -- Structural Info follows
#
%block chemicalspecieslabel
    1     5      B
%endblock chemicalspecieslabel
%block lattice-vectors
      3.5999900000       0.0000000000       0.0000000000
      0.0000000000       3.5999900000       0.0000000000
      0.0000000000       0.0000000000       3.5999900000
%endblock lattice-vectors
%block atomiccoordinatesandatomicspecies
      0.0000000000       0.0000000000       3.1999951111    1      B      1
      0.0000000000       0.0000000000       1.5879915889    1      B      2
%endblock atomiccoordinatesandatomicspecies
#
# -- K-points Info follows
#
%block kgrid_monkhorst_pack
    18      0      0       0.0000000000
     0     18      0       0.0000000000
     0      0     18       0.0000000000
%endblock kgrid_monkhorst_pack
#
#
maxwalltime 7200000
************************** End of input data file *****************************

reinit: -----------------------------------------------------------------------
reinit: System Name: aiida
reinit: -----------------------------------------------------------------------
reinit: System Label: aiida
reinit: -----------------------------------------------------------------------

initatom: Reading input for the pseudopotentials and atomic orbitals ----------
Species number:   1 Atomic number:    5 Label: B

---- Processing specs for species: B
Ground state valence configuration:   2s02  2p01
Reading pseudopotential information in PSML from:
  B.psml
PSML file version: 1.1
GGA--PBEsol XC_GGA_X_PBE_SOL--XC_GGA_C_PBE_SOL ps
PSML uuid: 4c4355a0-1d5f-11e8-6182-f22cff9f01b0

---- Pseudopotential check for B

Pseudized shells:
2s( 2.00) rc: 1.21
2p( 1.00) rc: 1.21
Valence configuration for ps generation: 2s:2p: Total charge:   3.000000
For B, standard SIESTA heuristics set lmxkb to 3
 (one more than the basis l, including polarization orbitals).
Use PS.lmax or PS.KBprojectors blocks to override.
B pseudopotential only contains V_ls up to l=1 -- lmxkb reset.

<basis_specs>
B                    Z=   5    Mass=  10.810        Charge= 0.17977+309
Lmxo=2 Lmxkb= 1    BasisType=split      Semic=F
L=0  Nsemic=0  Cnfigmx=2
          i=1  nzeta=2  polorb=0  (2s)
            splnorm:   0.15000
               vcte:    40.000
               rinn:  -0.90000
               qcoe:    0.0000
               qyuk:    0.0000
               qwid:   0.10000E-01
                rcs:    0.0000      0.0000
            lambdas:    1.0000      1.0000
L=1  Nsemic=0  Cnfigmx=2
          i=1  nzeta=2  polorb=1  (2p)  (to be polarized perturbatively)
            splnorm:   0.15000
               vcte:    40.000
               rinn:  -0.90000
               qcoe:    0.0000
               qyuk:    0.0000
               qwid:   0.10000E-01
                rcs:    0.0000      0.0000
            lambdas:    1.0000      1.0000
L=2  Nsemic=0  Cnfigmx=3
          i=1  nzeta=0  polorb=0  (3d)  (perturbative polarization orbital) (from 2p)
L=0  Nkbl=1  erefs: 0.17977+309
L=1  Nkbl=1  erefs: 0.17977+309
</basis_specs>

Using PAO.SplitTailNorm
atom: Called for B                     (Z =   5)
NOTE: B pseudopotential has channels up to l= 1
NOTE: PAOs with higher l will be generated with V_local
Maximum radius (at nrval) set to   50.00000 8518

read_vps: Pseudopotential generation method:
read_vps: ONCVPSP-3.Hamann's oncvpsp
Valence charge in pseudo generation:    3.00000

read_vps: Pseudopotential includes a core correction:
read_vps: Pseudo-core for xc-correction

xc_check: Exchange-correlation functional:
xc_check: GGA PBEsol
Got Vlocal (oncv-fit) from psml data
Choosing vlocal chloc cutoff:  3.201794
qtot up to nchloc:    3.00023194
atom: Maximum radius for chlocal:    3.20179
atom: Maximum radius for r*vlocal+2*Zval:    3.20179
Reading KB projs from B psml data
Using scalar-relativistic projectors in PSML file

PSML: Kleinman-Bylander projectors:
   l= 0   rc=  1.223468   Ekb= 16.933205
   l= 0   rc=  1.223468   Ekb=  2.495260
   l= 1   rc=  1.223468   Ekb= -7.218359
   l= 1   rc=  1.223468   Ekb= -1.645242

PSML: Total number of  Kleinman-Bylander projectors:   8
atom: -------------------------------------------------------------------------

atom: SANKEY-TYPE ORBITALS:
atom: Selected multiple-zeta basis: split

SPLIT: Orbitals with angular momentum L= 0

SPLIT: Basis orbitals for state 2s

SPLIT: PAO cut-off radius determined from an
SPLIT: energy shift=  0.005000 Ry
Split based on tail norm

   izeta = 1
                 lambda =    1.000000
                     rc =    5.714927
                 energy =   -0.682223
                kinetic =    0.604116
    potential(screened) =   -1.286339
       potential(ionic) =   -3.302390

   izeta = 2
                 rmatch =    3.823698
              splitnorm =    0.150000
                 energy =   -0.502064
                kinetic =    1.116406
    potential(screened) =   -1.618470
       potential(ionic) =   -3.792969

SPLIT: Orbitals with angular momentum L= 1

SPLIT: Basis orbitals for state 2p

SPLIT: PAO cut-off radius determined from an
SPLIT: energy shift=  0.005000 Ry
Split based on tail norm

   izeta = 1
                 lambda =    1.000000
                     rc =    7.066857
                 energy =   -0.255540
                kinetic =    1.512761
    potential(screened) =   -1.768301
       potential(ionic) =   -3.690166

   izeta = 2
                 rmatch =    4.748011
              splitnorm =    0.150000
                 energy =   -0.176810
                kinetic =    2.206388
    potential(screened) =   -2.383198
       potential(ionic) =   -4.488680
*Note: V_local used for l= 2

** Using vlocal for PAOs with L= 2

POLgen: Perturbative polarization orbital with L=  2

POLgen: Polarization orbital for state 2p
*Note: V_local used for lpol= 2

** Using vlocal for PAOs with L= 2
Split based on tail norm

   izeta = 1
                     rc =    7.066857
                 energy =    0.676401
                kinetic =    1.417761
    potential(screened) =   -0.741360
       potential(ionic) =   -2.355753
atom: Total number of Sankey-type orbitals: 13

atm_pop: Valence configuration (for local Pseudopot. screening):
 2s( 2.00)
 2p( 1.00)
 3d( 0.00)
Vna: chval, zval:    3.00000   3.00000

Vna:  Cut-off radius for the neutral-atom potential:   7.066857
comcore: Pseudo-core radius Rcore=  1.975419

atom: _________________________________________________________________________

prinput: Basis input

PAO.BasisType split

%block ChemicalSpeciesLabel
    1    5 B                       # Species index, atomic number, species label
%endblock ChemicalSpeciesLabel

%block PAO.Basis                 # Define Basis set
# WARNING: This information might be incomplete!
B                     2                    # Species label, number of l-shells
 n=2   0   2                         # n, l, Nzeta
   5.715      3.824
   1.000      1.000
 n=2   1   2 P   1                   # n, l, Nzeta, Polarization, NzetaPol
   7.067      4.748
   1.000      1.000
%endblock PAO.Basis

prinput: ----------------------------------------------------------------------

coor:   Atomic-coordinates input format  =     Cartesian coordinates
coor:                                          (in Angstroms)

siesta: Atomic coordinates (Bohr) and species
siesta:      0.00000   0.00000   6.04711  1        1
siesta:      0.00000   0.00000   3.00087  1        2

siesta: System type = bulk

initatomlists: Number of atoms, orbitals, and projectors:      2    26    16

siesta: ******************** Simulation parameters ****************************
siesta:
siesta: The following are some of the parameters of the simulation.
siesta: A complete list of the parameters used, including default values,
siesta: can be found in file out.fdf
siesta:
redata: Spin configuration                          = none
redata: Number of spin components                   = 1
redata: Time-Reversal Symmetry                      = T
redata: Spin spiral                                 = F
redata: Long output                                 =   F
redata: Number of Atomic Species                    =        1
redata: Charge density info will appear in .RHO file
redata: Write Mulliken Pop.                         = NO
redata: Matel table size (NRTAB)                    =     1024
redata: Mesh Cutoff                                 =   400.0000 Ry
redata: Net charge of the system                    =     0.0000 |e|
redata: Min. number of SCF Iter                     =        0
redata: Max. number of SCF Iter                     =     1000
redata: SCF convergence failure will abort job
redata: SCF mix quantity                            = Hamiltonian
redata: Mix DM or H after convergence               =   F
redata: Recompute H after scf cycle                 =   F
redata: Mix DM in first SCF step                    =   T
redata: Write Pulay info on disk                    =   F
redata: New DM Occupancy tolerance                  = 0.000000000001
redata: No kicks to SCF
redata: DM Mixing Weight for Kicks                  =     0.5000
redata: Require Harris convergence for SCF          =   F
redata: Harris energy tolerance for SCF             =     0.000100 eV
redata: Require DM convergence for SCF              =   T
redata: DM tolerance for SCF                        =     0.000010
redata: Require EDM convergence for SCF             =   F
redata: EDM tolerance for SCF                       =     0.001000 eV
redata: Require H convergence for SCF               =   T
redata: Hamiltonian tolerance for SCF               =     0.001000 eV
redata: Require (free) Energy convergence for SCF   =   F
redata: (free) Energy tolerance for SCF             =     0.000100 eV
redata: Using DFT-D3 dispersion                     =   F
redata: Using Saved Data (generic)                  =   F
redata: Use continuation files for DM               =   T
redata: Neglect nonoverlap interactions             =   F
redata: Method of Calculation                       = Diagonalization
redata: Electronic Temperature                      =    50.0000 K
redata: Fix the spin of the system                  =   F
redata: Max. number of TDED Iter                    =        1
redata: Number of TDED substeps                     =        3
redata: Dynamics option                             = Single-point calculation
mix.SCF: Pulay mixing                            = Pulay
mix.SCF:    Variant                              = stable
mix.SCF:    History steps                        = 10
mix.SCF:    Linear mixing weight                 =     0.025000
mix.SCF:    Mixing weight                        =     0.025000
mix.SCF:    SVD condition                        = 0.1000E-07
redata: ***********************************************************************

%block SCF.Mixers
  Pulay
%endblock SCF.Mixers

%block SCF.Mixer.Pulay
  # Mixing method
  method pulay
  variant stable

  # Mixing options
  weight 0.0250
  weight.linear 0.0250
  history 10
%endblock SCF.Mixer.Pulay

DM_history_depth set to one: no extrapolation allowed by default for geometry relaxation
Size of DM history Fstack: 1
Total number of electrons:     6.000000
Total ionic charge:     6.000000

* ProcessorY, Blocksize:    6   1

* Orbital distribution balance (max,min):     2     1

k-point displ. along   1 input, could be:     0.00    0.50
k-point displ. along   2 input, could be:     0.00    0.50
k-point displ. along   3 input, could be:     0.00    0.50
 Kpoints in:         3240 . Kpoints trimmed:         3096

siesta: k-grid: Number of k-points = 3096
siesta: k-points from Monkhorst-Pack grid
siesta: k-cutoff (effective) =    32.400 Ang
siesta: k-point supercell and displacements
siesta: k-grid:    18     0     0      0.000
siesta: k-grid:     0    18     0      0.000
siesta: k-grid:     0     0    18      0.000

diag: Algorithm                                     = D&C
diag: Parallel over k                               =   F
diag: Use parallel 2D distribution                  =   T
diag: Parallel block-size                           = 1
diag: Parallel distribution                         =     4 x     6
diag: Used triangular part                          = Lower
diag: Absolute tolerance                            =  0.100E-15
diag: Orthogonalization factor                      =  0.100E-05

superc: Internal auxiliary supercell:     5 x     5 x     5  =     125
superc: Number of atoms, orbitals, and projectors:    250   3250   2000

ts: **************************************************************
ts: Save H and S matrices                           =    F
ts: Save DM and EDM matrices                        =    F
ts: Only save the overlap matrix S                  =    F
ts: **************************************************************

************************ Begin: TS CHECKS AND WARNINGS ************************
************************ End: TS CHECKS AND WARNINGS **************************

                        Single-point calculation

superc: Internal auxiliary supercell:     5 x     5 x     5  =     125
superc: Number of atoms, orbitals, and projectors:    250   3250   2000

outcell: Unit cell vectors (Ang):
        3.599990    0.000000    0.000000
        0.000000    3.599990    0.000000
        0.000000    0.000000    3.599990

outcell: Cell vector modules (Ang)   :    3.599990    3.599990    3.599990
outcell: Cell angles (23,13,12) (deg):     90.0000     90.0000     90.0000
outcell: Cell volume (Ang**3)        :     46.6556
<dSpData1D:S at geom step 0
  <sparsity:sparsity for geom step 0
    nrows_g=26 nrows=2 sparsity=2.4112 nnzs=1630, refcount: 7>
  <dData1D:(new from dSpData1D) n=1630, refcount: 1>
refcount: 1>
new_DM -- step:     1
Initializing Density Matrix...

Attempting to read DM from file... Failed...
DM filled with atomic data:
<dSpData2D:DM initialized from atoms
  <sparsity:sparsity for geom step 0
    nrows_g=26 nrows=2 sparsity=2.4112 nnzs=1630, refcount: 8>
  <dData2D:DM n=1630 m=1, refcount: 1>
refcount: 1>
No. of atoms with KB's overlaping orbs in proc 0. Max # of overlaps:      18     157

InitMesh: MESH = 48 x 48 x 48 = 110592
InitMesh: Mesh cutoff (required, used) =   400.000   491.340 Ry
New grid distribution [1]: sub = 2
New grid distribution [2]: sub = 2
New grid distribution [3]: sub = 2
Setting up quadratic distribution...

stepf: Fermi-Dirac step function

siesta: Program's energy decomposition (eV):
siesta: Ebs     =       -56.986045
siesta: Eions   =       322.524855
siesta: Ena     =       131.926873
siesta: Ekin    =        86.660021
siesta: Enl     =         9.112151
siesta: Eso     =         0.000000
siesta: Edftu   =         0.000000
siesta: DEna    =        -3.100402
siesta: DUscf   =         0.779481
siesta: DUext   =         0.000000
siesta: Ex      =       -50.817378
siesta: Ec      =        -6.526921
siesta: Exc     =       -57.344299
siesta: EbV     =         0.000000
siesta: eta*DQ  =         0.000000
siesta: Emadel  =         0.000000
siesta: Emeta   =         0.000000
siesta: Emolmec =         0.000000
siesta: Ekinion =         0.000000
siesta: Eharris =      -156.916111
siesta: Etot    =      -154.491030
siesta: FreeEng =      -154.491119

        iscf     Eharris(eV)        E_KS(eV)     FreeEng(eV)     dDmax    Ef(eV) dHmax(eV)
   scf:    1     -156.916111     -154.491030     -154.491119  1.754740 -5.962980  1.246475
 IterSCF                          1      12.467  100.00
  compute_dm                      1      12.429   99.69
  setup_H                         1       0.037    0.30
  MIXER                           1       0.000    0.00
   scf:    2     -154.503302     -154.497183     -154.497274  0.001609 -5.948671  1.200293
   scf:    3     -154.637182     -154.578940     -154.579013  0.036671 -5.602392  0.075951
   scf:    4     -154.568342     -154.574256     -154.574325  0.009016 -5.711109  0.282124
   scf:    5     -154.583526     -154.579477     -154.579546  0.009107 -5.658212  0.030200
   scf:    6     -154.579735     -154.579631     -154.579700  0.001154 -5.663951  0.003526
   scf:    7     -154.579632     -154.579631     -154.579700  0.000228 -5.665535  0.000893
mix: Pulay -- inversion failed, > SVD [rank/size] 4 / 6
   scf:    8     -154.579631     -154.579631     -154.579700  0.000007 -5.665482  0.000735

SCF Convergence by DM+H criterion
max |DM_out - DM_in|         :     0.0000069913
max |H_out - H_in|      (eV) :     0.0007351286
SCF cycle converged after 8 iterations

Using DM_out to compute the final energy and forces
No. of atoms with KB's overlaping orbs in proc 0. Max # of overlaps:      18     157

siesta: E_KS(eV) =             -154.5796

siesta: E_KS - E_eggbox =      -154.5796

siesta: Atomic forces (eV/Ang):
   Tot   -0.000000    0.000000    0.000010
   Max    3.896592
   Res    2.249695    sqrt( Sum f_i^2 / 3N )
   Max    3.896592    constrained

Stress tensor Voigt[x,y,z,yz,xz,xy] (kbar):       69.27       69.27      313.56        0.00       -0.00       -0.00
(Free)E + p*V (eV/cell)     -158.9681
Target enthalpy (eV/cell)     -154.5797

siesta: Program's energy decomposition (eV):
siesta: Ebs     =       -58.965513
siesta: Eions   =       322.524855
siesta: Ena     =       131.926873
siesta: Ekin    =        83.614454
siesta: Enl     =         9.409750
siesta: Eso     =         0.000000
siesta: Edftu   =         0.000000
siesta: DEna    =        -0.929106
siesta: DUscf   =         0.555480
siesta: DUext   =         0.000000
siesta: Ex      =       -50.093122
siesta: Ec      =        -6.539106
siesta: Exc     =       -56.632228
siesta: EbV     =         0.000000
siesta: eta*DQ  =         0.000000
siesta: Emadel  =         0.000000
siesta: Emeta   =         0.000000
siesta: Emolmec =         0.000000
siesta: Ekinion =         0.000000
siesta: Eharris =      -154.579631
siesta: Etot    =      -154.579631
siesta: FreeEng =      -154.579700

siesta: Final energy (eV):
siesta:  Band Struct. =     -58.965513
siesta:       Kinetic =      83.614454
siesta:       Hartree =      32.390180
siesta:         Edftu =       0.000000
siesta:       Eso     =       0.000000
siesta:    Ext. field =       0.000000
siesta:         Exch. =     -50.093122
siesta:         Corr. =      -6.539106
siesta:     Bulk bias =       0.000000
siesta:   Exch.-corr. =     -56.632228
siesta:  Ion-electron =    -141.257499
siesta:       Ion-ion =     -72.694538
siesta:       Ekinion =       0.000000
siesta: D3 dispersion =       0.000000
siesta:         Total =    -154.579631
siesta:         Fermi =      -5.665482

siesta: Atomic forces (eV/Ang):
siesta:      1    0.000000    0.000000    3.896592
siesta:      2   -0.000000   -0.000000   -3.896582
siesta: ----------------------------------------
siesta:    Tot   -0.000000    0.000000    0.000010

siesta: Stress tensor (static) (eV/Ang**3):
siesta:     0.043235   -0.000000   -0.000000
siesta:    -0.000000    0.043235   -0.000000
siesta:    -0.000000    0.000000    0.195707

siesta: Cell volume =         46.655611 Ang**3

siesta: Pressure (static):
siesta:                Solid            Molecule  Units
siesta:          -0.00102443         -0.00151321  Ry/Bohr**3
siesta:          -0.09405905         -0.13893619  eV/Ang**3
siesta:        -150.69920985       -222.60031992  kBar
(Free)E+ p_basis*V_orbitals  =        -152.944110
(Free)Eharris+ p_basis*V_orbitals  =        -152.944110

cite: Please see "aiida.bib" for an exhaustive BiBTeX file.
cite: Please clearly indicate Siesta version in published work: NO_VERSION_LABEL_AVAILABLE
cite: This calculation has made use of the following articles
cite: which are encouraged to be cited in a published work.
        Primary SIESTA paper
          DOI: www.doi.org/10.1088/0953-8984/14/11/302

 global_section                   1     100.137  100.00
  siesta                          1     100.137  100.00
   Setup                          1       0.237    0.24
    bands                         1       0.000    0.00
    KSV_init                      1       0.000    0.00
   IterGeom                       1      99.774   99.64
    geom_init                     1       0.472    0.47
     state_init                   1       0.021    0.02
      hsparse                     1       0.000    0.00
      overlap                     1       0.010    0.01
     Setup_H0                     1       0.393    0.39
      naefs                       1       0.000    0.00
      MolMec                      1       0.000    0.00
      kinefsm                     1       0.007    0.01
      nlefsm                      1       0.042    0.04
      DHSCF_Init                  1       0.344    0.34
       DHSCF1                     1       0.044    0.04
        INITMESH                  1       0.000    0.00
       DHSCF2                     1       0.301    0.30
        REMESH                    1       0.092    0.09
         INITMESH                 2       0.039    0.04
          SPLOAD                  2       0.039    0.04
        REORD                     2       0.000    0.00
        PHION                     1       0.104    0.10
        COMM_BSC                  1       0.000    0.00
        POISON                    1       0.001    0.00
         fft                      2       0.001    0.00
     setup_H                      1       0.057    0.06
      DHSCF                       1       0.057    0.06
       DHSCF3                     1       0.057    0.06
        rhoofd                    1       0.019    0.02
        COMM_BSC                  2       0.012    0.01
        POISON                    1       0.001    0.00
         fft                      2       0.001    0.00
        XC                        1       0.008    0.01
         COMM_BSC                 2       0.000    0.00
         GXC-CellXC               1       0.007    0.01
          gridxc@cellXC           1       0.007    0.01
        vmat                      1       0.018    0.02
    IterSCF                       8      99.178   99.04
     compute_dm                   8      98.838   98.70
      diagon                      8      98.838   98.70
       c-eigval               24768      48.531   48.46
        c-buildHS             24768       0.614    0.61
        cdiag                 24768      47.900   47.83
         cdiag1               24768       4.584    4.58
         cdiag2               24768      10.179   10.16
         cdiag3               24768      31.951   31.91
       c-eigvec               24768      49.314   49.25
        cdiag                 24768      48.715   48.65
         cdiag1               24768       4.491    4.49
         cdiag2               24768       9.968    9.95
         cdiag3               24768      31.585   31.54
         cdiag4               24768       1.530    1.53
       c-buildD               24768       0.881    0.88
     setup_H                      8       0.335    0.33
      DHSCF                       8       0.335    0.33
       DHSCF3                     8       0.335    0.33
        rhoofd                    8       0.153    0.15
        COMM_BSC                 16       0.012    0.01
        POISON                    8       0.007    0.01
         fft                     16       0.006    0.01
        XC                        8       0.051    0.05
         COMM_BSC                16       0.001    0.00
         GXC-CellXC               8       0.050    0.05
          gridxc@cellXC           8       0.050    0.05
        vmat                      8       0.112    0.11
     MIXER                        7       0.000    0.00
    PostSCF                       1       0.123    0.12
     naefs                        1       0.000    0.00
     kinefsm                      1       0.000    0.00
     nlefsm                       1       0.006    0.01
     DHSCF                        1       0.113    0.11
      DHSCF3                      1       0.039    0.04
       rhoofd                     1       0.018    0.02
       COMM_BSC                   2       0.000    0.00
       POISON                     1       0.007    0.01
        fft                       2       0.007    0.01
       XC                         1       0.005    0.00
        COMM_BSC                  2       0.000    0.00
        GXC-CellXC                1       0.004    0.00
         gridxc@cellXC            1       0.004    0.00
       vmat                       1       0.010    0.01
      DHSCF4                      1       0.073    0.07
       REORD                     10       0.000    0.00
       COMM_BSC                   2       0.004    0.00
       dfscf                      1       0.049    0.05
     overfsm                      1       0.000    0.00
     MolMec                       1       0.000    0.00
     writeHSX                     1       0.001    0.00
    state_analysis                1       0.000    0.00
    siesta_move                   1       0.000    0.00
   Analysis                       1       0.124    0.12
    optical                       1       0.000    0.00

>> End of run:  22-APR-2024   3:19:34
Job completed