Runtime information:
* Directory : /home/ICN2/jgarridoa/aiida_run/86/4d/2101-1d11-45b1-a049-f615a27eb43d
>> Start of run:  19-APR-2024  20:29:35

reinit: Reading from standard input
reinit: Dumping input in INPUT_TMP.09549
************************** Dump of input data file ****************************
atomiccoordinatesformat Ang
cdfsave True
dminitspinaf False
dmmixingweight 0.025
dmmixscf1 True
dmnumberpulay 10
dmtolerance 1e-05
electronictemperature 50.000 K
geometrymustconverge T
latticeconstant 1.0 Ang
maxscfiterations 1000
meshcutoff 400 Ry
noncollinearspin False
numberofatoms 2
numberofspecies 1
savehs True
solutionmethod diagon
spinorbit False
spinpolarized False
systemlabel aiida
systemname aiida
usetreetimer T
writedmhsnetcdf True
writeorbmom True
xcauthors PBEsol
xcfunctional GGA
xmlwrite T
#
# -- Basis Set Info follows
#
PAO-BasisSize DZP
PAO-SplitNorm 0.15
PAO-EnergyShift 0.005 Ry
#
# -- Structural Info follows
#
%block chemicalspecieslabel
    1     6      C
%endblock chemicalspecieslabel
%block lattice-vectors
      3.5999900000       0.0000000000       0.0000000000
      0.0000000000       3.5999900000       0.0000000000
      0.0000000000       0.0000000000       3.5999900000
%endblock lattice-vectors
%block atomiccoordinatesandatomicspecies
      0.0000000000       0.0000000000       3.4481784217    1      C      1
      0.0000000000       0.0000000000       0.9181774495    1      C      2
%endblock atomiccoordinatesandatomicspecies
#
# -- K-points Info follows
#
%block kgrid_monkhorst_pack
     8      0      0       0.0000000000
     0      8      0       0.0000000000
     0      0      8       0.0000000000
%endblock kgrid_monkhorst_pack
#
#
maxwalltime 7200000
************************** End of input data file *****************************

reinit: -----------------------------------------------------------------------
reinit: System Name: aiida
reinit: -----------------------------------------------------------------------
reinit: System Label: aiida
reinit: -----------------------------------------------------------------------

initatom: Reading input for the pseudopotentials and atomic orbitals ----------
Species number:   1 Atomic number:    6 Label: C

---- Processing specs for species: C
Ground state valence configuration:   2s02  2p02
Reading pseudopotential information in PSML from:
  C.psml
PSML file version: 1.1
GGA--PBEsol XC_GGA_X_PBE_SOL--XC_GGA_C_PBE_SOL ps
PSML uuid: 51a02af0-1d5f-11e8-49c3-12b9ebd99919

---- Pseudopotential check for C

Pseudized shells:
2s( 2.00) rc: 1.20
2p( 2.00) rc: 1.26
Valence configuration for ps generation: 2s:2p: Total charge:   4.000000
For C, standard SIESTA heuristics set lmxkb to 3
 (one more than the basis l, including polarization orbitals).
Use PS.lmax or PS.KBprojectors blocks to override.
C pseudopotential only contains V_ls up to l=1 -- lmxkb reset.

<basis_specs>
C                    Z=   6    Mass=  12.011        Charge= 0.17977+309
Lmxo=2 Lmxkb= 1    BasisType=split      Semic=F
L=0  Nsemic=0  Cnfigmx=2
          i=1  nzeta=2  polorb=0  (2s)
            splnorm:   0.15000
               vcte:    40.000
               rinn:  -0.90000
               qcoe:    0.0000
               qyuk:    0.0000
               qwid:   0.10000E-01
                rcs:    0.0000      0.0000
            lambdas:    1.0000      1.0000
L=1  Nsemic=0  Cnfigmx=2
          i=1  nzeta=2  polorb=1  (2p)  (to be polarized perturbatively)
            splnorm:   0.15000
               vcte:    40.000
               rinn:  -0.90000
               qcoe:    0.0000
               qyuk:    0.0000
               qwid:   0.10000E-01
                rcs:    0.0000      0.0000
            lambdas:    1.0000      1.0000
L=2  Nsemic=0  Cnfigmx=3
          i=1  nzeta=0  polorb=0  (3d)  (perturbative polarization orbital) (from 2p)
L=0  Nkbl=1  erefs: 0.17977+309
L=1  Nkbl=1  erefs: 0.17977+309
</basis_specs>

Using PAO.SplitTailNorm
atom: Called for C                     (Z =   6)
NOTE: C pseudopotential has channels up to l= 1
NOTE: PAOs with higher l will be generated with V_local
Maximum radius (at nrval) set to   50.00000 8518

read_vps: Pseudopotential generation method:
read_vps: ONCVPSP-3.Hamann's oncvpsp
Valence charge in pseudo generation:    4.00000

read_vps: Pseudopotential includes a core correction:
read_vps: Pseudo-core for xc-correction

xc_check: Exchange-correlation functional:
xc_check: GGA PBEsol
Got Vlocal (oncv-fit) from psml data
Choosing vlocal chloc cutoff:  4.114026
qtot up to nchloc:    4.00001066
atom: Maximum radius for chlocal:    4.11403
atom: Maximum radius for r*vlocal+2*Zval:    4.11403
Reading KB projs from C psml data
Using scalar-relativistic projectors in PSML file

PSML: Kleinman-Bylander projectors:
   l= 0   rc=  1.219773   Ekb= 12.937878
   l= 0   rc=  1.219773   Ekb=  0.780062
   l= 1   rc=  1.278952   Ekb= -8.359390
   l= 1   rc=  1.278952   Ekb= -1.756905

PSML: Total number of  Kleinman-Bylander projectors:   8
atom: -------------------------------------------------------------------------

atom: SANKEY-TYPE ORBITALS:
atom: Selected multiple-zeta basis: split

SPLIT: Orbitals with angular momentum L= 0

SPLIT: Basis orbitals for state 2s

SPLIT: PAO cut-off radius determined from an
SPLIT: energy shift=  0.005000 Ry
Split based on tail norm

   izeta = 1
                 lambda =    1.000000
                     rc =    4.858714
                 energy =   -0.997375
                kinetic =    0.928233
    potential(screened) =   -1.925608
       potential(ionic) =   -5.470603

   izeta = 2
                 rmatch =    3.157143
              splitnorm =    0.150000
                 energy =   -0.747328
                kinetic =    1.689643
    potential(screened) =   -2.436971
       potential(ionic) =   -6.275825

SPLIT: Orbitals with angular momentum L= 1

SPLIT: Basis orbitals for state 2p

SPLIT: PAO cut-off radius determined from an
SPLIT: energy shift=  0.005000 Ry
Split based on tail norm

   izeta = 1
                 lambda =    1.000000
                     rc =    5.984425
                 energy =   -0.378962
                kinetic =    2.440834
    potential(screened) =   -2.819796
       potential(ionic) =   -6.224005

   izeta = 2
                 rmatch =    3.889428
              splitnorm =    0.150000
                 energy =   -0.273331
                kinetic =    3.469746
    potential(screened) =   -3.743077
       potential(ionic) =   -7.475055
*Note: V_local used for l= 2

** Using vlocal for PAOs with L= 2

POLgen: Perturbative polarization orbital with L=  2

POLgen: Polarization orbital for state 2p
*Note: V_local used for lpol= 2

** Using vlocal for PAOs with L= 2
Split based on tail norm

   izeta = 1
                     rc =    5.984425
                 energy =    1.076317
                kinetic =    2.134413
    potential(screened) =   -1.058097
       potential(ionic) =   -3.835567
atom: Total number of Sankey-type orbitals: 13

atm_pop: Valence configuration (for local Pseudopot. screening):
 2s( 2.00)
 2p( 2.00)
 3d( 0.00)
Vna: chval, zval:    4.00000   4.00000

Vna:  Cut-off radius for the neutral-atom potential:   5.984425
comcore: Pseudo-core radius Rcore=  1.671741

atom: _________________________________________________________________________

prinput: Basis input

PAO.BasisType split

%block ChemicalSpeciesLabel
    1    6 C                       # Species index, atomic number, species label
%endblock ChemicalSpeciesLabel

%block PAO.Basis                 # Define Basis set
# WARNING: This information might be incomplete!
C                     2                    # Species label, number of l-shells
 n=2   0   2                         # n, l, Nzeta
   4.859      3.157
   1.000      1.000
 n=2   1   2 P   1                   # n, l, Nzeta, Polarization, NzetaPol
   5.984      3.889
   1.000      1.000
%endblock PAO.Basis

prinput: ----------------------------------------------------------------------

coor:   Atomic-coordinates input format  =     Cartesian coordinates
coor:                                          (in Angstroms)

siesta: Atomic coordinates (Bohr) and species
siesta:      0.00000   0.00000   6.51611  1        1
siesta:      0.00000   0.00000   1.73510  1        2

siesta: System type = bulk

initatomlists: Number of atoms, orbitals, and projectors:      2    26    16

siesta: ******************** Simulation parameters ****************************
siesta:
siesta: The following are some of the parameters of the simulation.
siesta: A complete list of the parameters used, including default values,
siesta: can be found in file out.fdf
siesta:
redata: Spin configuration                          = none
redata: Number of spin components                   = 1
redata: Time-Reversal Symmetry                      = T
redata: Spin spiral                                 = F
redata: Long output                                 =   F
redata: Number of Atomic Species                    =        1
redata: Charge density info will appear in .RHO file
redata: Write Mulliken Pop.                         = NO
redata: Matel table size (NRTAB)                    =     1024
redata: Mesh Cutoff                                 =   400.0000 Ry
redata: Net charge of the system                    =     0.0000 |e|
redata: Min. number of SCF Iter                     =        0
redata: Max. number of SCF Iter                     =     1000
redata: SCF convergence failure will abort job
redata: SCF mix quantity                            = Hamiltonian
redata: Mix DM or H after convergence               =   F
redata: Recompute H after scf cycle                 =   F
redata: Mix DM in first SCF step                    =   T
redata: Write Pulay info on disk                    =   F
redata: New DM Occupancy tolerance                  = 0.000000000001
redata: No kicks to SCF
redata: DM Mixing Weight for Kicks                  =     0.5000
redata: Require Harris convergence for SCF          =   F
redata: Harris energy tolerance for SCF             =     0.000100 eV
redata: Require DM convergence for SCF              =   T
redata: DM tolerance for SCF                        =     0.000010
redata: Require EDM convergence for SCF             =   F
redata: EDM tolerance for SCF                       =     0.001000 eV
redata: Require H convergence for SCF               =   T
redata: Hamiltonian tolerance for SCF               =     0.001000 eV
redata: Require (free) Energy convergence for SCF   =   F
redata: (free) Energy tolerance for SCF             =     0.000100 eV
redata: Using DFT-D3 dispersion                     =   F
redata: Using Saved Data (generic)                  =   F
redata: Use continuation files for DM               =   T
redata: Neglect nonoverlap interactions             =   F
redata: Method of Calculation                       = Diagonalization
redata: Electronic Temperature                      =    50.0000 K
redata: Fix the spin of the system                  =   F
redata: Max. number of TDED Iter                    =        1
redata: Number of TDED substeps                     =        3
redata: Dynamics option                             = Single-point calculation
mix.SCF: Pulay mixing                            = Pulay
mix.SCF:    Variant                              = stable
mix.SCF:    History steps                        = 10
mix.SCF:    Linear mixing weight                 =     0.025000
mix.SCF:    Mixing weight                        =     0.025000
mix.SCF:    SVD condition                        = 0.1000E-07
redata: ***********************************************************************

%block SCF.Mixers
  Pulay
%endblock SCF.Mixers

%block SCF.Mixer.Pulay
  # Mixing method
  method pulay
  variant stable

  # Mixing options
  weight 0.0250
  weight.linear 0.0250
  history 10
%endblock SCF.Mixer.Pulay

DM_history_depth set to one: no extrapolation allowed by default for geometry relaxation
Size of DM history Fstack: 1
Total number of electrons:     8.000000
Total ionic charge:     8.000000

* ProcessorY, Blocksize:    6   1

* Orbital distribution balance (max,min):     2     1

k-point displ. along   1 input, could be:     0.00    0.50
k-point displ. along   2 input, could be:     0.00    0.50
k-point displ. along   3 input, could be:     0.00    0.50
 Kpoints in:          320 . Kpoints trimmed:          296

siesta: k-grid: Number of k-points = 296
siesta: k-points from Monkhorst-Pack grid
siesta: k-cutoff (effective) =    14.400 Ang
siesta: k-point supercell and displacements
siesta: k-grid:     8     0     0      0.000
siesta: k-grid:     0     8     0      0.000
siesta: k-grid:     0     0     8      0.000

diag: Algorithm                                     = D&C
diag: Parallel over k                               =   F
diag: Use parallel 2D distribution                  =   T
diag: Parallel block-size                           = 1
diag: Parallel distribution                         =     4 x     6
diag: Used triangular part                          = Lower
diag: Absolute tolerance                            =  0.100E-15
diag: Orthogonalization factor                      =  0.100E-05

superc: Internal auxiliary supercell:     5 x     5 x     5  =     125
superc: Number of atoms, orbitals, and projectors:    250   3250   2000

ts: **************************************************************
ts: Save H and S matrices                           =    F
ts: Save DM and EDM matrices                        =    F
ts: Only save the overlap matrix S                  =    F
ts: **************************************************************

************************ Begin: TS CHECKS AND WARNINGS ************************
************************ End: TS CHECKS AND WARNINGS **************************

                        Single-point calculation

superc: Internal auxiliary supercell:     5 x     5 x     5  =     125
superc: Number of atoms, orbitals, and projectors:    250   3250   2000

outcell: Unit cell vectors (Ang):
        3.599990    0.000000    0.000000
        0.000000    3.599990    0.000000
        0.000000    0.000000    3.599990

outcell: Cell vector modules (Ang)   :    3.599990    3.599990    3.599990
outcell: Cell angles (23,13,12) (deg):     90.0000     90.0000     90.0000
outcell: Cell volume (Ang**3)        :     46.6556
<dSpData1D:S at geom step 0
  <sparsity:sparsity for geom step 0
    nrows_g=26 nrows=2 sparsity=1.5621 nnzs=1056, refcount: 7>
  <dData1D:(new from dSpData1D) n=1056, refcount: 1>
refcount: 1>
new_DM -- step:     1
Initializing Density Matrix...

Attempting to read DM from file... Failed...
DM filled with atomic data:
<dSpData2D:DM initialized from atoms
  <sparsity:sparsity for geom step 0
    nrows_g=26 nrows=2 sparsity=1.5621 nnzs=1056, refcount: 8>
  <dData2D:DM n=1056 m=1, refcount: 1>
refcount: 1>
No. of atoms with KB's overlaping orbs in proc 0. Max # of overlaps:      13     118

InitMesh: MESH = 48 x 48 x 48 = 110592
InitMesh: Mesh cutoff (required, used) =   400.000   491.340 Ry
New grid distribution [1]: sub = 2
New grid distribution [2]: sub = 2
New grid distribution [3]: sub = 2
Setting up quadratic distribution...

stepf: Fermi-Dirac step function

siesta: Program's energy decomposition (eV):
siesta: Ebs     =       -88.420583
siesta: Eions   =       564.684353
siesta: Ena     =       162.082631
siesta: Ekin    =       225.182363
siesta: Enl     =        -8.672413
siesta: Eso     =         0.000000
siesta: Edftu   =         0.000000
siesta: DEna    =       -19.216691
siesta: DUscf   =         3.730949
siesta: DUext   =         0.000000
siesta: Ex      =      -102.529726
siesta: Ec      =        -9.935836
siesta: Exc     =      -112.465562
siesta: EbV     =         0.000000
siesta: eta*DQ  =         0.000000
siesta: Emadel  =         0.000000
siesta: Emeta   =         0.000000
siesta: Emolmec =         0.000000
siesta: Ekinion =         0.000000
siesta: Eharris =      -314.483338
siesta: Etot    =      -314.043075
siesta: FreeEng =      -314.043075

        iscf     Eharris(eV)        E_KS(eV)     FreeEng(eV)     dDmax    Ef(eV) dHmax(eV)
   scf:    1     -314.483338     -314.043075     -314.043075  1.082617 -9.098082  3.952073
 IterSCF                          1       1.228  100.00
  compute_dm                      1       1.208   98.40
  setup_H                         1       0.019    1.53
  MIXER                           1       0.000    0.00
   scf:    2     -314.194987     -314.119307     -314.119307  0.010637 -8.939099  3.788255
   scf:    3     -315.639557     -315.086614     -315.086614  0.237350 -8.328804  0.366113
   scf:    4     -313.346311     -314.382753     -314.382949  0.152658 -7.575938  2.888595
   scf:    5     -313.785727     -314.091473     -314.091611  0.030636 -7.402157  3.382556
   scf:    6     -315.596141     -315.090372     -315.090372  0.181389 -8.450962  0.084774
   scf:    7     -315.089231     -315.089843     -315.089843  0.004300 -8.587176  0.098132
   scf:    8     -315.091283     -315.090730     -315.090730  0.004716 -8.509154  0.006282
   scf:    9     -315.090707     -315.090720     -315.090720  0.000679 -8.500300  0.012414
   scf:   10     -315.090735     -315.090728     -315.090728  0.000243 -8.503400  0.007760
mix: Pulay -- inversion failed, > SVD [rank/size] 4 / 9
   scf:   11     -315.090733     -315.090730     -315.090730  0.000113 -8.503937  0.005575
mix: Pulay -- inversion failed, > SVD [rank/size] 4 / 9
   scf:   12     -315.090732     -315.090731     -315.090731  0.000032 -8.504438  0.004937
mix: Pulay -- inversion failed, > SVD [rank/size] 4 / 9
   scf:   13     -315.090735     -315.090733     -315.090733  0.000193 -8.507171  0.001068
mix: Pulay -- inversion failed, > SVD [rank/size] 3 / 9
   scf:   14     -315.090733     -315.090733     -315.090733  0.000063 -8.507863  0.000400
mix: Pulay -- inversion failed, > SVD [rank/size] 3 / 9
   scf:   15     -315.090733     -315.090733     -315.090733  0.000015 -8.507683  0.000456
mix: Pulay -- inversion failed, > SVD [rank/size] 4 / 9
   scf:   16     -315.090733     -315.090733     -315.090733  0.000024 -8.507711  0.000407
mix: Pulay -- inversion failed, > SVD [rank/size] 5 / 9
   scf:   17     -315.090733     -315.090733     -315.090733  0.000088 -8.507902  0.000044
mix: Pulay -- inversion failed, > SVD [rank/size] 5 / 9
   scf:   18     -315.090733     -315.090733     -315.090733  0.000002 -8.507869  0.000009

SCF Convergence by DM+H criterion
max |DM_out - DM_in|         :     0.0000020282
max |H_out - H_in|      (eV) :     0.0000086434
SCF cycle converged after 18 iterations

Using DM_out to compute the final energy and forces
No. of atoms with KB's overlaping orbs in proc 0. Max # of overlaps:      13     118

siesta: E_KS(eV) =             -315.0907

siesta: E_KS - E_eggbox =      -315.0907

siesta: Atomic forces (eV/Ang):
   Tot    0.000000   -0.000000    0.000667
   Max   32.282033
   Res   18.637848    sqrt( Sum f_i^2 / 3N )
   Max   32.282033    constrained

Stress tensor Voigt[x,y,z,yz,xz,xy] (kbar):        6.03        6.03     -667.44        0.00       -0.00       -0.00
(Free)E + p*V (eV/cell)     -308.7291
Target enthalpy (eV/cell)     -315.0907

siesta: Program's energy decomposition (eV):
siesta: Ebs     =      -101.410264
siesta: Eions   =       564.684353
siesta: Ena     =       162.082631
siesta: Ekin    =       211.514051
siesta: Enl     =        -6.412986
siesta: Eso     =         0.000000
siesta: Edftu   =         0.000000
siesta: DEna    =        -9.590103
siesta: DUscf   =         1.559791
siesta: DUext   =         0.000000
siesta: Ex      =       -99.720702
siesta: Ec      =        -9.839062
siesta: Exc     =      -109.559763
siesta: EbV     =         0.000000
siesta: eta*DQ  =         0.000000
siesta: Emadel  =         0.000000
siesta: Emeta   =         0.000000
siesta: Emolmec =         0.000000
siesta: Ekinion =         0.000000
siesta: Eharris =      -315.090733
siesta: Etot    =      -315.090733
siesta: FreeEng =      -315.090733

siesta: Final energy (eV):
siesta:  Band Struct. =    -101.410264
siesta:       Kinetic =     211.514051
siesta:       Hartree =     126.568083
siesta:         Edftu =       0.000000
siesta:       Eso     =       0.000000
siesta:    Ext. field =       0.000000
siesta:         Exch. =     -99.720702
siesta:         Corr. =      -9.839062
siesta:     Bulk bias =       0.000000
siesta:   Exch.-corr. =    -109.559763
siesta:  Ion-electron =    -447.044380
siesta:       Ion-ion =     -96.568724
siesta:       Ekinion =       0.000000
siesta: D3 dispersion =       0.000000
siesta:         Total =    -315.090733
siesta:         Fermi =      -8.507869

siesta: Atomic forces (eV/Ang):
siesta:      1    0.000000   -0.000000  -32.281365
siesta:      2   -0.000000   -0.000000   32.282033
siesta: ----------------------------------------
siesta:    Tot    0.000000   -0.000000    0.000667

siesta: Stress tensor (static) (eV/Ang**3):
siesta:     0.003764    0.000000    0.000000
siesta:    -0.000000    0.003764    0.000000
siesta:    -0.000000    0.000000   -0.416586

siesta: Cell volume =         46.655611 Ang**3

siesta: Pressure (static):
siesta:                Solid            Molecule  Units
siesta:           0.00148507          0.00784035  Ry/Bohr**3
siesta:           0.13635285          0.71986773  eV/Ang**3
siesta:         218.46135652       1153.35526089  kBar
(Free)E+ p_basis*V_orbitals  =        -314.108777
(Free)Eharris+ p_basis*V_orbitals  =        -314.108777

cite: Please see "aiida.bib" for an exhaustive BiBTeX file.
cite: Please clearly indicate Siesta version in published work: NO_VERSION_LABEL_AVAILABLE
cite: This calculation has made use of the following articles
cite: which are encouraged to be cited in a published work.
        Primary SIESTA paper
          DOI: www.doi.org/10.1088/0953-8984/14/11/302

 global_section                   1      21.451  100.00
  siesta                          1      21.451  100.00
   Setup                          1       0.073    0.34
    bands                         1       0.000    0.00
    KSV_init                      1       0.000    0.00
   IterGeom                       1      21.364   99.60
    geom_init                     1       0.258    1.20
     state_init                   1       0.020    0.10
      hsparse                     1       0.000    0.00
      overlap                     1       0.009    0.04
     Setup_H0                     1       0.204    0.95
      naefs                       1       0.000    0.00
      MolMec                      1       0.000    0.00
      kinefsm                     1       0.007    0.03
      nlefsm                      1       0.026    0.12
      DHSCF_Init                  1       0.171    0.80
       DHSCF1                     1       0.029    0.14
        INITMESH                  1       0.000    0.00
       DHSCF2                     1       0.142    0.66
        REMESH                    1       0.050    0.23
         INITMESH                 2       0.039    0.18
          SPLOAD                  2       0.039    0.18
        REORD                     2       0.000    0.00
        PHION                     1       0.048    0.22
        COMM_BSC                  1       0.000    0.00
        POISON                    1       0.001    0.00
         fft                      2       0.001    0.00
     setup_H                      1       0.034    0.16
      DHSCF                       1       0.034    0.16
       DHSCF3                     1       0.034    0.16
        rhoofd                    1       0.010    0.05
        COMM_BSC                  2       0.005    0.02
        POISON                    1       0.001    0.00
         fft                      2       0.001    0.00
        XC                        1       0.008    0.04
         COMM_BSC                 2       0.000    0.00
         GXC-CellXC               1       0.008    0.04
          gridxc@cellXC           1       0.008    0.04
        vmat                      1       0.010    0.05
    IterSCF                      18      21.035   98.06
     compute_dm                  18      20.638   96.21
      diagon                     18      20.637   96.21
       c-eigval                5328      10.137   47.26
        c-buildHS              5328       0.079    0.37
        cdiag                  5328      10.055   46.87
         cdiag1                5328       0.972    4.53
         cdiag2                5328       2.114    9.85
         cdiag3                5328       6.722   31.34
       c-eigvec                5328      10.348   48.24
        cdiag                  5328      10.268   47.87
         cdiag1                5328       0.955    4.45
         cdiag2                5328       2.088    9.73
         cdiag3                5328       6.672   31.10
         cdiag4                5328       0.319    1.48
       c-buildD                5328       0.141    0.66
     setup_H                     18       0.387    1.80
      DHSCF                      18       0.387    1.80
       DHSCF3                    18       0.387    1.80
        rhoofd                   18       0.138    0.64
        COMM_BSC                 36       0.015    0.07
        POISON                   18       0.021    0.10
         fft                     36       0.020    0.10
        XC                       18       0.105    0.49
         COMM_BSC                36       0.002    0.01
         GXC-CellXC              18       0.102    0.48
          gridxc@cellXC          18       0.102    0.48
        vmat                     18       0.106    0.50
     MIXER                       17       0.001    0.01
    PostSCF                       1       0.070    0.33
     naefs                        1       0.000    0.00
     kinefsm                      1       0.000    0.00
     nlefsm                       1       0.003    0.02
     DHSCF                        1       0.054    0.25
      DHSCF3                      1       0.022    0.10
       rhoofd                     1       0.008    0.04
       COMM_BSC                   2       0.000    0.00
       POISON                     1       0.001    0.00
        fft                       2       0.001    0.00
       XC                         1       0.006    0.03
        COMM_BSC                  2       0.000    0.00
        GXC-CellXC                1       0.005    0.03
         gridxc@cellXC            1       0.005    0.03
       vmat                       1       0.008    0.04
      DHSCF4                      1       0.032    0.15
       REORD                     10       0.000    0.00
       COMM_BSC                   2       0.002    0.01
       dfscf                      1       0.024    0.11
     overfsm                      1       0.000    0.00
     MolMec                       1       0.000    0.00
     writeHSX                     1       0.001    0.00
    state_analysis                1       0.001    0.00
    siesta_move                   1       0.000    0.00
   Analysis                       1       0.013    0.06
    optical                       1       0.000    0.00

>> End of run:  19-APR-2024  20:29:56
Job completed