Runtime information:
* Directory : /home/ICN2/jgarridoa/aiida_run/18/92/7910-b80c-4bbb-a74c-20235218ea55
>> Start of run:  22-APR-2024   3:50:09

reinit: Reading from standard input
reinit: Dumping input in INPUT_TMP.44277
************************** Dump of input data file ****************************
atomiccoordinatesformat Ang
cdfsave True
dminitspinaf False
dmmixingweight 0.025
dmmixscf1 True
dmnumberpulay 10
dmtolerance 1e-05
electronictemperature 50.000 K
geometrymustconverge T
latticeconstant 1.0 Ang
maxscfiterations 1000
meshcutoff 400 Ry
noncollinearspin False
numberofatoms 8
numberofspecies 2
savehs True
solutionmethod diagon
spinorbit False
spinpolarized False
systemlabel aiida
systemname aiida
usetreetimer T
writedmhsnetcdf True
writeorbmom True
xcauthors PBEsol
xcfunctional GGA
xmlwrite T
#
# -- Basis Set Info follows
#
PAO-BasisSize DZP
PAO-SplitNorm 0.15
PAO-EnergyShift 0.005 Ry
#
# -- Structural Info follows
#
%block chemicalspecieslabel
    1     7      N
    2     5      B
%endblock chemicalspecieslabel
%block lattice-vectors
      2.4927300000       0.0000000000       0.0000000000
      0.0000000000       8.1698800000       0.0000000000
      0.0000000000       0.0000000000       4.4304700000
%endblock lattice-vectors
%block atomiccoordinatesandatomicspecies
      2.2856090643       0.0024509640       4.3418606000    1      N      1
      1.0538265348       4.0409860456       4.3563925416    1      N      2
      1.0390446459       0.0024509640       2.0698712793    1      N      3
      2.3041549755       4.0498912148       2.0704472404    1      N      4
      2.3003909532       0.0100489524       2.8000127353    2      B      5
      1.0399171014       4.0409043468       2.7891580838    2      B      6
      1.0559204280       0.0129901092       0.6337344288    2      B      7
      2.2864565925       4.0409043468       0.6307217092    2      B      8
%endblock atomiccoordinatesandatomicspecies
#
# -- K-points Info follows
#
%block kgrid_monkhorst_pack
     6      0      0       0.0000000000
     0      6      0       0.0000000000
     0      0      6       0.0000000000
%endblock kgrid_monkhorst_pack
#
#
maxwalltime 7200000
************************** End of input data file *****************************

reinit: -----------------------------------------------------------------------
reinit: System Name: aiida
reinit: -----------------------------------------------------------------------
reinit: System Label: aiida
reinit: -----------------------------------------------------------------------

initatom: Reading input for the pseudopotentials and atomic orbitals ----------
Species number:   1 Atomic number:    7 Label: N
Species number:   2 Atomic number:    5 Label: B

---- Processing specs for species: N
Ground state valence configuration:   2s02  2p03
Reading pseudopotential information in PSML from:
  N.psml
PSML file version: 1.1
GGA--PBEsol XC_GGA_X_PBE_SOL--XC_GGA_C_PBE_SOL ps
PSML uuid: 56b43770-1d5f-11e8-525f-e1e3c77dc801

---- Processing specs for species: B
Ground state valence configuration:   2s02  2p01
Reading pseudopotential information in PSML from:
  B.psml
PSML file version: 1.1
GGA--PBEsol XC_GGA_X_PBE_SOL--XC_GGA_C_PBE_SOL ps
PSML uuid: 4c4355a0-1d5f-11e8-6182-f22cff9f01b0

---- Pseudopotential check for N

Pseudized shells:
2s( 2.00) rc: 1.21
2p( 3.00) rc: 1.36
Valence configuration for ps generation: 2s:2p: Total charge:   5.000000

---- Pseudopotential check for B

Pseudized shells:
2s( 2.00) rc: 1.21
2p( 1.00) rc: 1.21
Valence configuration for ps generation: 2s:2p: Total charge:   3.000000
For N, standard SIESTA heuristics set lmxkb to 3
 (one more than the basis l, including polarization orbitals).
Use PS.lmax or PS.KBprojectors blocks to override.
For B, standard SIESTA heuristics set lmxkb to 3
 (one more than the basis l, including polarization orbitals).
Use PS.lmax or PS.KBprojectors blocks to override.
N pseudopotential only contains V_ls up to l=1 -- lmxkb reset.
B pseudopotential only contains V_ls up to l=1 -- lmxkb reset.

<basis_specs>
N                    Z=   7    Mass=  14.007        Charge= 0.17977+309
Lmxo=2 Lmxkb= 1    BasisType=split      Semic=F
L=0  Nsemic=0  Cnfigmx=2
          i=1  nzeta=2  polorb=0  (2s)
            splnorm:   0.15000
               vcte:    40.000
               rinn:  -0.90000
               qcoe:    0.0000
               qyuk:    0.0000
               qwid:   0.10000E-01
                rcs:    0.0000      0.0000
            lambdas:    1.0000      1.0000
L=1  Nsemic=0  Cnfigmx=2
          i=1  nzeta=2  polorb=1  (2p)  (to be polarized perturbatively)
            splnorm:   0.15000
               vcte:    40.000
               rinn:  -0.90000
               qcoe:    0.0000
               qyuk:    0.0000
               qwid:   0.10000E-01
                rcs:    0.0000      0.0000
            lambdas:    1.0000      1.0000
L=2  Nsemic=0  Cnfigmx=3
          i=1  nzeta=0  polorb=0  (3d)  (perturbative polarization orbital) (from 2p)
L=0  Nkbl=1  erefs: 0.17977+309
L=1  Nkbl=1  erefs: 0.17977+309
</basis_specs>

Using PAO.SplitTailNorm
atom: Called for N                     (Z =   7)
NOTE: N pseudopotential has channels up to l= 1
NOTE: PAOs with higher l will be generated with V_local
Maximum radius (at nrval) set to   50.00000 8518

read_vps: Pseudopotential generation method:
read_vps: ONCVPSP-3.Hamann's oncvpsp
Valence charge in pseudo generation:    5.00000

read_vps: Pseudopotential includes a core correction:
read_vps: Pseudo-core for xc-correction

xc_check: Exchange-correlation functional:
xc_check: GGA PBEsol
Got Vlocal (oncv-fit) from psml data
Choosing vlocal chloc cutoff:  6.038618
qtot up to nchloc:    4.99997633
atom: Maximum radius for chlocal:    6.03862
atom: Maximum radius for r*vlocal+2*Zval:    6.03862
Reading KB projs from N psml data
Using scalar-relativistic projectors in PSML file

PSML: Kleinman-Bylander projectors:
   l= 0   rc=  1.214864   Ekb= 14.928379
   l= 0   rc=  1.221004   Ekb=  1.251736
   l= 1   rc=  1.375180   Ekb= -8.619428
   l= 1   rc=  1.375180   Ekb= -2.025883

PSML: Total number of  Kleinman-Bylander projectors:   8
atom: -------------------------------------------------------------------------

atom: SANKEY-TYPE ORBITALS:
atom: Selected multiple-zeta basis: split

SPLIT: Orbitals with angular momentum L= 0

SPLIT: Basis orbitals for state 2s

SPLIT: PAO cut-off radius determined from an
SPLIT: energy shift=  0.005000 Ry
Split based on tail norm

   izeta = 1
                 lambda =    1.000000
                     rc =    4.265195
                 energy =   -1.350827
                kinetic =    1.238925
    potential(screened) =   -2.589752
       potential(ionic) =   -8.091187

   izeta = 2
                 rmatch =    2.696970
              splitnorm =    0.150000
                 energy =   -1.041987
                kinetic =    2.172223
    potential(screened) =   -3.214210
       potential(ionic) =   -9.191634

[...]

SPLIT: Basis orbitals for state 2p

[...]

   izeta = 2
                 rmatch =    3.312873
              splitnorm =    0.150000
                 energy =   -0.376057
                kinetic =    4.835938
    potential(screened) =   -5.211995
       potential(ionic) =  -11.044105
*Note: V_local used for l= 2

** Using vlocal for PAOs with L= 2

POLgen: Perturbative polarization orbital with L=  2

POLgen: Polarization orbital for state 2p
*Note: V_local used for lpol= 2

** Using vlocal for PAOs with L= 2
Split based on tail norm

   izeta = 1
                     rc =    5.253677
                 energy =    1.558482
                kinetic =    2.921564
    potential(screened) =   -1.363082
       potential(ionic) =   -5.578203
atom: Total number of Sankey-type orbitals: 13

atm_pop: Valence configuration (for local Pseudopot. screening):
 2s( 2.00)
 2p( 3.00)
 3d( 0.00)
Vna: chval, zval:    5.00000   5.00000

Vna:  Cut-off radius for the neutral-atom potential:   5.253677
comcore: Pseudo-core radius Rcore=  1.572221

atom: _________________________________________________________________________

<basis_specs>
B                    Z=   5    Mass=  10.810        Charge= 0.17977+309
Lmxo=2 Lmxkb= 1    BasisType=split      Semic=F
L=0  Nsemic=0  Cnfigmx=2
          i=1  nzeta=2  polorb=0  (2s)
            splnorm:   0.15000
               vcte:    40.000
               rinn:  -0.90000
               qcoe:    0.0000
               qyuk:    0.0000
               qwid:   0.10000E-01
                rcs:    0.0000      0.0000
            lambdas:    1.0000      1.0000
L=1  Nsemic=0  Cnfigmx=2
          i=1  nzeta=2  polorb=1  (2p)  (to be polarized perturbatively)
            splnorm:   0.15000
               vcte:    40.000
               rinn:  -0.90000
               qcoe:    0.0000
               qyuk:    0.0000
               qwid:   0.10000E-01
                rcs:    0.0000      0.0000
            lambdas:    1.0000      1.0000
L=2  Nsemic=0  Cnfigmx=3
          i=1  nzeta=0  polorb=0  (3d)  (perturbative polarization orbital) (from 2p)
L=0  Nkbl=1  erefs: 0.17977+309
L=1  Nkbl=1  erefs: 0.17977+309
</basis_specs>

Using PAO.SplitTailNorm
atom: Called for B                     (Z =   5)
NOTE: B pseudopotential has channels up to l= 1
NOTE: PAOs with higher l will be generated with V_local
Maximum radius (at nrval) set to   50.00000 8518

read_vps: Pseudopotential generation method:
read_vps: ONCVPSP-3.Hamann's oncvpsp
Valence charge in pseudo generation:    3.00000

read_vps: Pseudopotential includes a core correction:
read_vps: Pseudo-core for xc-correction

xc_check: Exchange-correlation functional:
xc_check: GGA PBEsol
Got Vlocal (oncv-fit) from psml data
Choosing vlocal chloc cutoff:  3.201794
qtot up to nchloc:    3.00023194
atom: Maximum radius for chlocal:    3.20179
atom: Maximum radius for r*vlocal+2*Zval:    3.20179
Reading KB projs from B psml data
Using scalar-relativistic projectors in PSML file

PSML: Kleinman-Bylander projectors:
   l= 0   rc=  1.223468   Ekb= 16.933205
   l= 0   rc=  1.223468   Ekb=  2.495260
   l= 1   rc=  1.223468   Ekb= -7.218359
   l= 1   rc=  1.223468   Ekb= -1.645242

PSML: Total number of  Kleinman-Bylander projectors:   8
atom: -------------------------------------------------------------------------

atom: SANKEY-TYPE ORBITALS:
atom: Selected multiple-zeta basis: split

[...]

SPLIT: Basis orbitals for state 2s

[...]

   izeta = 2
                 rmatch =    3.823698
              splitnorm =    0.150000
                 energy =   -0.502064
                kinetic =    1.116406
    potential(screened) =   -1.618470
       potential(ionic) =   -3.792969

SPLIT: Orbitals with angular momentum L= 1

SPLIT: Basis orbitals for state 2p

SPLIT: PAO cut-off radius determined from an
SPLIT: energy shift=  0.005000 Ry
Split based on tail norm

   izeta = 1
                 lambda =    1.000000
                     rc =    7.066857
                 energy =   -0.255540
                kinetic =    1.512761
    potential(screened) =   -1.768301
       potential(ionic) =   -3.690166

   izeta = 2
                 rmatch =    4.748011
              splitnorm =    0.150000
[...]
redata: Require EDM convergence for SCF             =   F
redata: EDM tolerance for SCF                       =     0.001000 eV
redata: Require H convergence for SCF               =   T
redata: Hamiltonian tolerance for SCF               =     0.001000 eV
redata: Require (free) Energy convergence for SCF   =   F
redata: (free) Energy tolerance for SCF             =     0.000100 eV
redata: Using DFT-D3 dispersion                     =   F
redata: Using Saved Data (generic)                  =   F
redata: Use continuation files for DM               =   T
redata: Neglect nonoverlap interactions             =   F
redata: Method of Calculation                       = Diagonalization
redata: Electronic Temperature                      =    50.0000 K
redata: Fix the spin of the system                  =   F
redata: Max. number of TDED Iter                    =        1
redata: Number of TDED substeps                     =        3
redata: Dynamics option                             = Single-point calculation
mix.SCF: Pulay mixing                            = Pulay
mix.SCF:    Variant                              = stable
mix.SCF:    History steps                        = 10
mix.SCF:    Linear mixing weight                 =     0.025000
mix.SCF:    Mixing weight                        =     0.025000
mix.SCF:    SVD condition                        = 0.1000E-07
redata: ***********************************************************************

%block SCF.Mixers
  Pulay
%endblock SCF.Mixers

%block SCF.Mixer.Pulay
  # Mixing method
  method pulay
  variant stable

  # Mixing options
  weight 0.0250
  weight.linear 0.0250
  history 10
%endblock SCF.Mixer.Pulay

DM_history_depth set to one: no extrapolation allowed by default for geometry relaxation
Size of DM history Fstack: 1
Total number of electrons:    32.000000
Total ionic charge:    32.000000

* ProcessorY, Blocksize:    6   4

* Orbital distribution balance (max,min):     8     4

k-point displ. along   1 input, could be:     0.00    0.50
k-point displ. along   2 input, could be:     0.00    0.50
k-point displ. along   3 input, could be:     0.00    0.50
 Kpoints in:          144 . Kpoints trimmed:          132

siesta: k-grid: Number of k-points = 132
siesta: k-points from Monkhorst-Pack grid
siesta: k-cutoff (effective) =     7.478 Ang
siesta: k-point supercell and displacements
siesta: k-grid:     6     0     0      0.000
siesta: k-grid:     0     6     0      0.000
siesta: k-grid:     0     0     6      0.000

diag: Algorithm                                     = D&C
diag: Parallel over k                               =   F
diag: Use parallel 2D distribution                  =   T
diag: Parallel block-size                           = 4
diag: Parallel distribution                         =     4 x     6
diag: Used triangular part                          = Lower
diag: Absolute tolerance                            =  0.100E-15
diag: Orthogonalization factor                      =  0.100E-05

superc: Internal auxiliary supercell:     7 x     3 x     5  =     105
superc: Number of atoms, orbitals, and projectors:    840  10920   6720

ts: **************************************************************
ts: Save H and S matrices                           =    F
ts: Save DM and EDM matrices                        =    F
ts: Only save the overlap matrix S                  =    F
ts: **************************************************************

************************ Begin: TS CHECKS AND WARNINGS ************************
************************ End: TS CHECKS AND WARNINGS **************************

                        Single-point calculation

superc: Internal auxiliary supercell:     7 x     3 x     5  =     105
superc: Number of atoms, orbitals, and projectors:    840  10920   6720

outcell: Unit cell vectors (Ang):
        2.492730    0.000000    0.000000
        0.000000    8.169880    0.000000
        0.000000    0.000000    4.430470

outcell: Cell vector modules (Ang)   :    2.492730    8.169880    4.430470
outcell: Cell angles (23,13,12) (deg):     90.0000     90.0000     90.0000
outcell: Cell volume (Ang**3)        :     90.2279
<dSpData1D:S at geom step 0
  <sparsity:sparsity for geom step 0
    nrows_g=104 nrows=8 sparsity=.7208 nnzs=7796, refcount: 7>
  <dData1D:(new from dSpData1D) n=7796, refcount: 1>
refcount: 1>
new_DM -- step:     1
Initializing Density Matrix...

Attempting to read DM from file... Failed...
DM filled with atomic data:
<dSpData2D:DM initialized from atoms
  <sparsity:sparsity for geom step 0
    nrows_g=104 nrows=8 sparsity=.7208 nnzs=7796, refcount: 8>
  <dData2D:DM n=7796 m=1, refcount: 1>
refcount: 1>
No. of atoms with KB's overlaping orbs in proc 0. Max # of overlaps:      42     225

InitMesh: MESH = 30 x 100 x 54 = 162000
InitMesh: Mesh cutoff (required, used) =   400.000   400.308 Ry
New grid distribution [1]: sub = 2
New grid distribution [2]: sub = 2
New grid distribution [3]: sub = 2
Setting up quadratic distribution...

stepf: Fermi-Dirac step function

siesta: Program's energy decomposition (eV):
siesta: Ebs     =      -385.928405
siesta: Eions   =      2442.366599
siesta: Ena     =       597.552009
siesta: Ekin    =      1079.409098
siesta: Enl     =      -130.353608
siesta: Eso     =         0.000000
siesta: Edftu   =         0.000000
siesta: DEna    =       -84.411823
siesta: DUscf   =        11.819741
siesta: DUext   =         0.000000
siesta: Ex      =      -438.005975
siesta: Ec      =       -42.311667
siesta: Exc     =      -480.317642
siesta: EbV     =         0.000000
siesta: eta*DQ  =         0.000000
siesta: Emadel  =         0.000000
siesta: Emeta   =         0.000000
siesta: Emolmec =         0.000000
siesta: Ekinion =         0.000000
siesta: Eharris =     -1432.744796
siesta: Etot    =     -1448.668824
siesta: FreeEng =     -1448.668824

        iscf     Eharris(eV)        E_KS(eV)     FreeEng(eV)     dDmax    Ef(eV) dHmax(eV)
   scf:    1    -1432.744796    -1448.668824    -1448.668824  1.934243 -5.205113  6.804444
 IterSCF                          1       1.546  100.00
  compute_dm                      1       1.411   91.30
  setup_H                         1       0.131    8.50
  MIXER                           1       0.000    0.00
   scf:    2    -1449.726169    -1449.202649    -1449.202649  0.010576 -5.099299  6.414341
   scf:    3    -1453.357580    -1452.984242    -1452.984242  0.174990 -6.904200  0.877188
   scf:    4    -1452.838017    -1452.912984    -1452.912984  0.003204 -6.872791  0.996538
   scf:    5    -1453.233373    -1453.197877    -1453.197877  0.090715 -3.092900  0.494455
   scf:    6    -1453.222382    -1453.212726    -1453.212726  0.012756 -2.997939  0.139879
   scf:    7    -1453.215459    -1453.214494    -1453.214494  0.007480 -3.034058  0.073660
   scf:    8    -1453.215393    -1453.215048    -1453.215048  0.004791 -6.636920  0.050213
   scf:    9    -1453.215005    -1453.215121    -1453.215121  0.003611 -6.651258  0.021667
   scf:   10    -1453.215215    -1453.215181    -1453.215181  0.001391 -6.653352  0.010791
   scf:   11    -1453.215192    -1453.215188    -1453.215188  0.000166 -6.655194  0.004488
   scf:   12    -1453.215185    -1453.215187    -1453.215187  0.000217 -6.655861  0.005531
   scf:   13    -1453.215188    -1453.215189    -1453.215189  0.000073 -6.656430  0.002595
   scf:   14    -1453.215190    -1453.215189    -1453.215189  0.000215 -6.657601  0.000211
   scf:   15    -1453.215189    -1453.215189    -1453.215189  0.000017 -6.657536  0.000094
   scf:   16    -1453.215189    -1453.215189    -1453.215189  0.000011 -6.657536  0.000021
   scf:   17    -1453.215189    -1453.215189    -1453.215189  0.000007 -6.657536  0.000007

SCF Convergence by DM+H criterion
max |DM_out - DM_in|         :     0.0000071485
max |H_out - H_in|      (eV) :     0.0000066454
SCF cycle converged after 17 iterations

Using DM_out to compute the final energy and forces
No. of atoms with KB's overlaping orbs in proc 0. Max # of overlaps:      42     225

siesta: E_KS(eV) =            -1453.2152

siesta: E_KS - E_eggbox =     -1453.2152

siesta: Atomic forces (eV/Ang):
   Tot    0.002010    0.000227   -0.002762
   Max    3.211626
   Res    1.217303    sqrt( Sum f_i^2 / 3N )
   Max    3.211626    constrained

Stress tensor Voigt[x,y,z,yz,xz,xy] (kbar):      -83.34       10.46       88.14       -0.29       -0.33        0.38
(Free)E + p*V (eV/cell)    -1453.5016
Target enthalpy (eV/cell)    -1453.2152

siesta: Program's energy decomposition (eV):
siesta: Ebs     =      -459.429000
siesta: Eions   =      2442.366599
siesta: Ena     =       597.552009
siesta: Ekin    =       998.559078
siesta: Enl     =      -106.775124
siesta: Eso     =         0.000000
siesta: Edftu   =         0.000000
siesta: DEna    =       -39.342690
siesta: DUscf   =         3.557156
siesta: DUext   =         0.000000
siesta: Ex      =      -422.091237
siesta: Ec      =       -42.307783
siesta: Exc     =      -464.399020
siesta: EbV     =         0.000000
siesta: eta*DQ  =         0.000000
siesta: Emadel  =         0.000000
siesta: Emeta   =         0.000000
siesta: Emolmec =         0.000000
siesta: Ekinion =         0.000000
siesta: Eharris =     -1453.215189
siesta: Etot    =     -1453.215189
siesta: FreeEng =     -1453.215189

siesta: Final energy (eV):
siesta:  Band Struct. =    -459.429000
siesta:       Kinetic =     998.559078
siesta:       Hartree =     640.926529
siesta:         Edftu =       0.000000
siesta:       Eso     =       0.000000
siesta:    Ext. field =       0.000000
siesta:         Exch. =    -422.091237
siesta:         Corr. =     -42.307783
siesta:     Bulk bias =       0.000000
siesta:   Exch.-corr. =    -464.399020
siesta:  Ion-electron =   -2211.543854
siesta:       Ion-ion =    -416.757923
siesta:       Ekinion =       0.000000
siesta: D3 dispersion =       0.000000
siesta:         Total =   -1453.215189
siesta:         Fermi =      -6.657536

siesta: Atomic forces (eV/Ang):
siesta:      1    0.788149    0.124802   -2.413767
siesta:      2   -0.684635   -0.035487   -3.211626
siesta:      3    0.693852    0.111104    1.137117
siesta:      4   -0.846134   -0.084665    0.960069
siesta:      5   -0.696112   -0.100881    2.105103
siesta:      6    0.829751    0.072118    2.692873
siesta:      7   -0.785446   -0.129172   -0.829244
siesta:      8    0.702584    0.042407   -0.443285
siesta: ----------------------------------------
siesta:    Tot    0.002010    0.000227   -0.002762

siesta: Stress tensor (static) (eV/Ang**3):
siesta:    -0.052018    0.000240   -0.000206
siesta:     0.000240    0.006527   -0.000180
siesta:    -0.000206   -0.000180    0.055014

siesta: Cell volume =         90.227873 Ang**3

siesta: Pressure (static):
siesta:                Solid            Molecule  Units
siesta:          -0.00003457          0.00027374  Ry/Bohr**3
siesta:          -0.00317441          0.02513403  eV/Ang**3
siesta:          -5.08597092         40.26915566  kBar
(Free)E+ p_basis*V_orbitals  =       -1448.631175
(Free)Eharris+ p_basis*V_orbitals  =       -1448.631175

cite: Please see "aiida.bib" for an exhaustive BiBTeX file.
cite: Please clearly indicate Siesta version in published work: NO_VERSION_LABEL_AVAILABLE
cite: This calculation has made use of the following articles
cite: which are encouraged to be cited in a published work.
        Primary SIESTA paper
          DOI: www.doi.org/10.1088/0953-8984/14/11/302

 global_section                   1      26.527  100.00
  siesta                          1      26.527  100.00
   Setup                          1       0.153    0.58
    bands                         1       0.000    0.00
    KSV_init                      1       0.000    0.00
   IterGeom                       1      26.357   99.36
    geom_init                     1       1.192    4.49
     state_init                   1       0.129    0.49
      hsparse                     1       0.003    0.01
      overlap                     1       0.066    0.25
     Setup_H0                     1       0.921    3.47
      naefs                       1       0.001    0.00
      MolMec                      1       0.000    0.00
      kinefsm                     1       0.064    0.24
      nlefsm                      1       0.284    1.07
      DHSCF_Init                  1       0.573    2.16
       DHSCF1                     1       0.034    0.13
        INITMESH                  1       0.000    0.00
       DHSCF2                     1       0.539    2.03
        REMESH                    1       0.283    1.07
         INITMESH                 2       0.237    0.89
          SPLOAD                  2       0.237    0.89
        REORD                     2       0.000    0.00
        PHION                     1       0.133    0.50
        COMM_BSC                  1       0.000    0.00
        POISON                    1       0.001    0.01
         fft                      2       0.001    0.00
     setup_H                      1       0.142    0.54
      DHSCF                       1       0.142    0.54
       DHSCF3                     1       0.142    0.54
        rhoofd                    1       0.052    0.20
        COMM_BSC                  2       0.030    0.11
        POISON                    1       0.001    0.00
         fft                      2       0.001    0.00
        XC                        1       0.010    0.04
         COMM_BSC                 2       0.000    0.00
         GXC-CellXC               1       0.010    0.04
          gridxc@cellXC           1       0.010    0.04
        vmat                      1       0.048    0.18
    IterSCF                      17      24.804   93.50
     compute_dm                  17      23.041   86.86
      diagon                     17      23.040   86.85
       c-eigval                2244      10.931   41.21
        c-buildHS              2244       0.236    0.89
        cdiag                  2244      10.693   40.31
         cdiag1                2244       0.610    2.30
         cdiag2                2244       1.432    5.40
         cdiag3                2244       8.457   31.88
       c-eigvec                2244      11.456   43.19
        cdiag                  2244      11.216   42.28
         cdiag1                2244       0.614    2.31
         cdiag2                2244       1.441    5.43
         cdiag3                2244       8.496   32.03
         cdiag4                2244       0.419    1.58
       c-buildD                2244       0.643    2.42
     setup_H                     17       1.722    6.49
      DHSCF                      17       1.721    6.49
       DHSCF3                    17       1.721    6.49
        rhoofd                   17       0.889    3.35
        COMM_BSC                 34       0.079    0.30
        POISON                   17       0.016    0.06
         fft                     34       0.015    0.06
        XC                       17       0.143    0.54
         COMM_BSC                34       0.002    0.01
         GXC-CellXC              17       0.140    0.53
          gridxc@cellXC          17       0.140    0.53
        vmat                     17       0.592    2.23
     MIXER                       16       0.005    0.02
    PostSCF                       1       0.360    1.36
     naefs                        1       0.000    0.00
     kinefsm                      1       0.002    0.01
     nlefsm                       1       0.020    0.07
     DHSCF                        1       0.246    0.93
      DHSCF3                      1       0.091    0.34
       rhoofd                     1       0.053    0.20
       COMM_BSC                   2       0.001    0.01
       POISON                     1       0.001    0.00
        fft                       2       0.001    0.00
       XC                         1       0.007    0.03
        COMM_BSC                  2       0.000    0.00
        GXC-CellXC                1       0.007    0.03
         gridxc@cellXC            1       0.007    0.03
       vmat                       1       0.029    0.11
      DHSCF4                      1       0.155    0.58
       REORD                     10       0.000    0.00
       COMM_BSC                   2       0.003    0.01
       dfscf                      1       0.130    0.49
     overfsm                      1       0.002    0.01
     MolMec                       1       0.000    0.00
     writeHSX                     1       0.003    0.01
    state_analysis                1       0.001    0.00
    siesta_move                   1       0.000    0.00
   Analysis                       1       0.016    0.06
    optical                       1       0.000    0.00

>> End of run:  22-APR-2024   3:50:36
Job completed