Runtime information:
* Directory : /home/ICN2/jgarridoa/aiida_run/02/c7/0fd1-607a-4ab1-9cf6-a096107959e9
>> Start of run:  21-APR-2024  16:21:19

reinit: Reading from standard input
reinit: Dumping input in INPUT_TMP.14045
************************** Dump of input data file ****************************
atomiccoordinatesformat Ang
cdfsave True
dminitspinaf False
dmmixingweight 0.025
dmmixscf1 True
dmnumberpulay 10
dmtolerance 1e-05
electronictemperature 50.000 K
geometrymustconverge T
latticeconstant 1.0 Ang
maxscfiterations 1000
meshcutoff 400 Ry
noncollinearspin False
numberofatoms 64
numberofspecies 3
savehs True
solutionmethod diagon
spinorbit False
spinpolarized False
systemlabel aiida
systemname aiida
usetreetimer T
writedmhsnetcdf True
writeorbmom True
xcauthors PBEsol
xcfunctional GGA
xmlwrite T
#
# -- Basis Set Info follows
#
PAO-BasisSize DZP
PAO-SplitNorm 0.15
PAO-EnergyShift 0.005 Ry
#
# -- Structural Info follows
#
%block chemicalspecieslabel
    1     5      B
    2     7      N
    3     6      C
%endblock chemicalspecieslabel
%block lattice-vectors
      7.7342300000       0.0000000000       0.0000000000
      0.0000000000       7.7342300000       0.0000000000
      0.0000000000       0.0000000000       7.7342300000
%endblock lattice-vectors
%block atomiccoordinatesandatomicspecies
      6.9288646301       1.9015377878       6.0295283657    1      B      1
      4.8856357487       7.2706402538       5.0860296480    1      B      2
      0.6104627739       6.2705269725       6.9160258083    1      B      3
      5.0185098201       7.5171301639       0.0049499072    1      B      4
      1.6621633693       3.2092413962       1.7007571770    1      B      5
      4.4909579918       2.6437918409       7.1557869383    1      B      6
      7.2882742982       3.0267135682       1.6765490371    1      B      7
      6.8229056791       7.3377733702       5.0631363272    1      B      8
      6.5303971005       5.5044514910       3.8463872636    1      B      9
      4.9779051126       6.0634042931       2.4870189988    1      B     10
      1.1038293056       1.0308955167       5.6575119027    1      B     11
      0.6629008533       7.5292729050       1.7206341481    1      B     12
      6.3332515778       1.2813298841       0.6942244848    1      B     13
      1.9031619761       3.4875963339       3.5367086944    1      B     14
      5.4482236389       4.0661167379       5.0854109096    1      B     15
      4.0060217708       3.5128872660       4.6408473692    1      B     16
      6.1171571916       0.4904275243       2.9176609252    1      B     17
      3.8139034976       1.7448422880       2.3589401500    1      B     18
      3.1019676261       0.6357537060       4.5783547908    1      B     19
      3.0164270423       7.4308161571       1.8231900379    1      B     20
      3.3140402127       5.5681815462       3.6050792876    1      B     21
      4.9643702101       1.4826518910       4.9072142504    1      B     22
      1.2508570179       7.2069875409       5.9394245862    2      N     23
      3.3495403284       4.0967442887       3.3745218913    2      N     24
      2.3005467135       6.2476336517       2.6474269290    2      N     25
      0.4062791019       3.4921595296       2.9178156098    2      N     26
      6.3661993976       5.7234848846       1.7513390412    2      N     27
      3.6098745102       6.3097395186       4.8318828502    2      N     28
      4.9277099599       1.3298235062       0.0824468918    2      N     29
      3.2196052644       2.1744014222       5.1578033024    2      N     30
      7.0365251117       0.4589492082       1.7190099598    2      N     31
      5.1159611181       4.0453116592       7.4580406467    2      N     32
      7.3991058141       1.5029929159       7.3753617280    2      N     33
      2.8448044786       0.7710253887       2.9997211055    2      N     34
      5.5839593754       6.9791371251       3.6861340180    2      N     35
      4.4395253623       2.9117829104       1.6883824090    2      N     36
      5.1736584739       1.6733006605       3.3474520863    2      N     37
      5.6007426545       2.6127002363       5.8812631766    2      N     38
      7.4365394873       3.7796408587       6.7146264591    2      N     39
      6.5860835565       5.1371529083       5.4136516308    2      N     40
      4.4228194255       6.9882635165       1.3077809507    2      N     41
      0.8398600357       6.4378183674       0.6786013402    2      N     42
      5.1383130428       6.6719335095       6.5327947118    2      N     43
      2.4362824500       4.1901737871       0.7518444983    2      N     44
      7.2850259216       1.1042933594       4.8112324561    2      N     45
      6.1040090006       4.5928178009       0.7350612192    3      C     46
      1.4482345675       1.3433584087       2.5627371105    3      C     47
      2.1064175405       3.8828928292       6.9881861742    3      C     48
      0.9288036807       3.8194721432       5.4141930269    3      C     49
      2.4098313834       1.1742107986       0.5714822547    3      C     50
      0.8670845253       6.1702913517       3.5754571867    3      C     51
      2.3297821029       5.7792486829       0.7225317666    3      C     52
      6.8711672743       5.8294438356       6.8174143758    3      C     53
      4.1984494132       5.2322065950       6.7703902574    3      C     54
      0.0514326295       5.2441173092       2.3136175622    3      C     55
      3.9273646517       4.3276883965       1.3043005472    3      C     56
      7.3190565336       3.4561953601       4.2778026130    3      C     57
      2.6246109505       6.4434643553       6.0365665150    3      C     58
      0.3314117555       1.4764645070       3.5737556561    3      C     59
      3.2059930196       0.2088242100       7.2042032181    3      C     60
      2.3594042038       2.4513641985       6.3868497917    3      C     61
      0.2273863620       3.8326203342       0.4695451033    3      C     62
      1.0953989949       1.8643361415       0.0292353894    3      C     63
      5.8784788538       2.8829342325       2.2335682817    3      C     64
%endblock atomiccoordinatesandatomicspecies
#
# -- K-points Info follows
#
%block kgrid_monkhorst_pack
     6      0      0       0.0000000000
     0      6      0       0.0000000000
     0      0      6       0.0000000000
%endblock kgrid_monkhorst_pack
#
#
maxwalltime 7200000
************************** End of input data file *****************************

reinit: -----------------------------------------------------------------------
reinit: System Name: aiida
reinit: -----------------------------------------------------------------------
reinit: System Label: aiida
reinit: -----------------------------------------------------------------------

initatom: Reading input for the pseudopotentials and atomic orbitals ----------
Species number:   1 Atomic number:    5 Label: B
Species number:   2 Atomic number:    7 Label: N
Species number:   3 Atomic number:    6 Label: C

---- Processing specs for species: B
Ground state valence configuration:   2s02  2p01
Reading pseudopotential information in PSML from:
  B.psml
PSML file version: 1.1
GGA--PBEsol XC_GGA_X_PBE_SOL--XC_GGA_C_PBE_SOL ps
PSML uuid: 4c4355a0-1d5f-11e8-6182-f22cff9f01b0

---- Processing specs for species: N
Ground state valence configuration:   2s02  2p03
Reading pseudopotential information in PSML from:
  N.psml
PSML file version: 1.1
GGA--PBEsol XC_GGA_X_PBE_SOL--XC_GGA_C_PBE_SOL ps
PSML uuid: 56b43770-1d5f-11e8-525f-e1e3c77dc801

---- Processing specs for species: C
Ground state valence configuration:   2s02  2p02
Reading pseudopotential information in PSML from:
  C.psml
PSML file version: 1.1
GGA--PBEsol XC_GGA_X_PBE_SOL--XC_GGA_C_PBE_SOL ps
PSML uuid: 51a02af0-1d5f-11e8-49c3-12b9ebd99919

---- Pseudopotential check for B

Pseudized shells:
2s( 2.00) rc: 1.21
2p( 1.00) rc: 1.21
Valence configuration for ps generation: 2s:2p: Total charge:   3.000000

[...]

Pseudized shells:
2s( 2.00) rc: 1.21
2p( 3.00) rc: 1.36
Valence configuration for ps generation: 2s:2p: Total charge:   5.000000

---- Pseudopotential check for C

Pseudized shells:
2s( 2.00) rc: 1.20
2p( 2.00) rc: 1.26
Valence configuration for ps generation: 2s:2p: Total charge:   4.000000
For B, standard SIESTA heuristics set lmxkb to 3
 (one more than the basis l, including polarization orbitals).
Use PS.lmax or PS.KBprojectors blocks to override.
For N, standard SIESTA heuristics set lmxkb to 3
 (one more than the basis l, including polarization orbitals).
Use PS.lmax or PS.KBprojectors blocks to override.
For C, standard SIESTA heuristics set lmxkb to 3
 (one more than the basis l, including polarization orbitals).
Use PS.lmax or PS.KBprojectors blocks to override.
B pseudopotential only contains V_ls up to l=1 -- lmxkb reset.
N pseudopotential only contains V_ls up to l=1 -- lmxkb reset.
C pseudopotential only contains V_ls up to l=1 -- lmxkb reset.

<basis_specs>
B                    Z=   5    Mass=  10.810        Charge= 0.17977+309
Lmxo=2 Lmxkb= 1    BasisType=split      Semic=F
L=0  Nsemic=0  Cnfigmx=2
          i=1  nzeta=2  polorb=0  (2s)
            splnorm:   0.15000
               vcte:    40.000
               rinn:  -0.90000
               qcoe:    0.0000
               qyuk:    0.0000
               qwid:   0.10000E-01
                rcs:    0.0000      0.0000
            lambdas:    1.0000      1.0000
L=1  Nsemic=0  Cnfigmx=2
          i=1  nzeta=2  polorb=1  (2p)  (to be polarized perturbatively)
            splnorm:   0.15000
               vcte:    40.000
               rinn:  -0.90000
               qcoe:    0.0000
               qyuk:    0.0000
               qwid:   0.10000E-01
                rcs:    0.0000      0.0000
            lambdas:    1.0000      1.0000
L=2  Nsemic=0  Cnfigmx=3
          i=1  nzeta=0  polorb=0  (3d)  (perturbative polarization orbital) (from 2p)
L=0  Nkbl=1  erefs: 0.17977+309
L=1  Nkbl=1  erefs: 0.17977+309
</basis_specs>

Using PAO.SplitTailNorm
atom: Called for B                     (Z =   5)
NOTE: B pseudopotential has channels up to l= 1
NOTE: PAOs with higher l will be generated with V_local
Maximum radius (at nrval) set to   50.00000 8518

read_vps: Pseudopotential generation method:
read_vps: ONCVPSP-3.Hamann's oncvpsp
Valence charge in pseudo generation:    3.00000

read_vps: Pseudopotential includes a core correction:
read_vps: Pseudo-core for xc-correction

xc_check: Exchange-correlation functional:
xc_check: GGA PBEsol
Got Vlocal (oncv-fit) from psml data
Choosing vlocal chloc cutoff:  3.201794
qtot up to nchloc:    3.00023194
atom: Maximum radius for chlocal:    3.20179
atom: Maximum radius for r*vlocal+2*Zval:    3.20179
Reading KB projs from B psml data
Using scalar-relativistic projectors in PSML file

PSML: Kleinman-Bylander projectors:
   l= 0   rc=  1.223468   Ekb= 16.933205
   l= 0   rc=  1.223468   Ekb=  2.495260
   l= 1   rc=  1.223468   Ekb= -7.218359
   l= 1   rc=  1.223468   Ekb= -1.645242

PSML: Total number of  Kleinman-Bylander projectors:   8
atom: -------------------------------------------------------------------------

[...]
outcell: Cell angles (23,13,12) (deg):     90.0000     90.0000     90.0000
outcell: Cell volume (Ang**3)        :    462.6486
<dSpData1D:S at geom step 0
  <sparsity:sparsity for geom step 0
    nrows_g=832 nrows=35 sparsity=.1127 nnzs=77996, refcount: 7>
  <dData1D:(new from dSpData1D) n=77996, refcount: 1>
refcount: 1>
new_DM -- step:     1
Initializing Density Matrix...

Attempting to read DM from file... Failed...
DM filled with atomic data:
<dSpData2D:DM initialized from atoms
  <sparsity:sparsity for geom step 0
    nrows_g=832 nrows=35 sparsity=.1127 nnzs=77996, refcount: 8>
  <dData2D:DM n=77996 m=1, refcount: 1>
refcount: 1>
No. of atoms with KB's overlaping orbs in proc 0. Max # of overlaps:     130     402

InitMesh: MESH = 96 x 96 x 96 = 884736
InitMesh: Mesh cutoff (required, used) =   400.000   425.805 Ry
New grid distribution [1]: sub = 2
New grid distribution [2]: sub = 2
New grid distribution [3]: sub = 2
Setting up quadratic distribution...

stepf: Fermi-Dirac step function

siesta: Program's energy decomposition (eV):
siesta: Ebs     =     -3332.717092
siesta: Eions   =     19246.846870
siesta: Ena     =      4878.323288
siesta: Ekin    =      7646.105581
siesta: Enl     =      -649.054233
siesta: Eso     =         0.000000
siesta: Edftu   =         0.000000
siesta: DEna    =      -215.663078
siesta: DUscf   =        56.115785
siesta: DUext   =         0.000000
siesta: Ex      =     -3325.886356
siesta: Ec      =      -352.526984
siesta: Exc     =     -3678.413341
siesta: EbV     =         0.000000
siesta: eta*DQ  =         0.000000
siesta: Emadel  =         0.000000
siesta: Emeta   =         0.000000
siesta: Emolmec =         0.000000
siesta: Ekinion =         0.000000
siesta: Eharris =    -10963.649297
siesta: Etot    =    -11209.432867
siesta: FreeEng =    -11209.433901

        iscf     Eharris(eV)        E_KS(eV)     FreeEng(eV)     dDmax    Ef(eV) dHmax(eV)
   scf:    1   -10963.649297   -11209.432867   -11209.433901  1.703805 -5.425939 12.810219
 IterSCF                          1      52.545  100.00
  compute_dm                      1      51.531   98.07
  setup_H                         1       0.994    1.89
  MIXER                           1       0.000    0.00
   scf:    2   -11222.527939   -11216.228685   -11216.229762  0.028122 -5.434695 11.030854
   scf:    3   -11241.710136   -11233.916709   -11233.917623  0.130012 -5.459617  3.964995
   scf:    4   -11238.056259   -11236.376594   -11236.377567  0.035675 -5.423734  3.011040
   scf:    5   -11239.086418   -11238.556871   -11238.558037  0.058753 -5.384643  1.451850
   scf:    6   -11239.247974   -11239.000992   -11239.002213  0.025129 -5.354327  0.788534
   scf:    7   -11239.517881   -11239.297002   -11239.298254  0.017264 -5.318151  0.632388
   scf:    8   -11239.613905   -11239.489485   -11239.490718  0.021088 -5.273617  0.401227
   scf:    9   -11239.581775   -11239.543642   -11239.544860  0.014295 -5.247343  0.234735
   scf:   10   -11239.598492   -11239.575147   -11239.576344  0.008098 -5.231563  0.186063
   scf:   11   -11239.611897   -11239.596096   -11239.597277  0.009276 -5.216572  0.160033
   scf:   12   -11239.607060   -11239.602550   -11239.603723  0.004990 -5.209052  0.128471
   scf:   13   -11239.607237   -11239.605481   -11239.606653  0.003491 -5.204751  0.041756
   scf:   14   -11239.606165   -11239.605832   -11239.607004  0.000415 -5.204355  0.040052
   scf:   15   -11239.607803   -11239.607011   -11239.608187  0.001604 -5.202725  0.023651
   scf:   16   -11239.607584   -11239.607334   -11239.608510  0.000862 -5.201701  0.011232
   scf:   17   -11239.607436   -11239.607387   -11239.608562  0.000161 -5.201508  0.011028
   scf:   18   -11239.607621   -11239.607520   -11239.608697  0.000556 -5.201033  0.005970
   scf:   19   -11239.607541   -11239.607531   -11239.608708  0.000087 -5.201154  0.005215
   scf:   20   -11239.607572   -11239.607554   -11239.608732  0.000208 -5.200900  0.002707
   scf:   21   -11239.607558   -11239.607556   -11239.608733  0.000022 -5.200896  0.002501
   scf:   22   -11239.607567   -11239.607562   -11239.608739  0.000111 -5.200950  0.001249
   scf:   23   -11239.607566   -11239.607564   -11239.608741  0.000062 -5.200951  0.000893
   scf:   24   -11239.607565   -11239.607564   -11239.608742  0.000023 -5.200960  0.000845
   scf:   25   -11239.607566   -11239.607565   -11239.608743  0.000066 -5.201025  0.000727
   scf:   26   -11239.607566   -11239.607566   -11239.608743  0.000035 -5.201081  0.000470
   scf:   27   -11239.607566   -11239.607566   -11239.608743  0.000014 -5.201103  0.000343
   scf:   28   -11239.607566   -11239.607566   -11239.608743  0.000027 -5.201127  0.000256
   scf:   29   -11239.607566   -11239.607566   -11239.608743  0.000012 -5.201142  0.000168
   scf:   30   -11239.607566   -11239.607566   -11239.608743  0.000004 -5.201146  0.000163

SCF Convergence by DM+H criterion
max |DM_out - DM_in|         :     0.0000037687
max |H_out - H_in|      (eV) :     0.0001625889
SCF cycle converged after 30 iterations

Using DM_out to compute the final energy and forces
No. of atoms with KB's overlaping orbs in proc 0. Max # of overlaps:     130     402

siesta: E_KS(eV) =           -11239.6076

siesta: E_KS - E_eggbox =    -11239.6076

siesta: Atomic forces (eV/Ang):
   Tot   -0.004029   -0.003023    0.000565
   Max    5.658761
   Res    2.054323    sqrt( Sum f_i^2 / 3N )
   Max    5.658761    constrained

Stress tensor Voigt[x,y,z,yz,xz,xy] (kbar):      132.48      109.82      192.13        8.15      -22.74      -16.93
(Free)E + p*V (eV/cell)   -11281.4236
Target enthalpy (eV/cell)   -11239.6087

siesta: Program's energy decomposition (eV):
siesta: Ebs     =     -3566.823437
siesta: Eions   =     19246.846870
siesta: Ena     =      4878.323288
siesta: Ekin    =      7389.610598
siesta: Enl     =      -561.223906
siesta: Eso     =         0.000000
siesta: Edftu   =         0.000000
siesta: DEna    =       -80.554719
siesta: DUscf   =        12.143535
siesta: DUext   =         0.000000
siesta: Ex      =     -3277.350437
siesta: Ec      =      -353.709055
siesta: Exc     =     -3631.059492
siesta: EbV     =         0.000000
siesta: eta*DQ  =         0.000000
siesta: Emadel  =         0.000000
siesta: Emeta   =         0.000000
siesta: Emolmec =         0.000000
siesta: Ekinion =         0.000000
siesta: Eharris =    -11239.607566
siesta: Etot    =    -11239.607566
siesta: FreeEng =    -11239.608743

siesta: Final energy (eV):
siesta:  Band Struct. =   -3566.823437
siesta:       Kinetic =    7389.610598
siesta:       Hartree =    1763.354422
siesta:         Edftu =       0.000000
siesta:       Eso     =       0.000000
siesta:    Ext. field =       0.000000
siesta:         Exch. =   -3277.350437
siesta:         Corr. =    -353.709055
siesta:     Bulk bias =       0.000000
siesta:   Exch.-corr. =   -3631.059492
siesta:  Ion-electron =  -10403.976522
siesta:       Ion-ion =   -6357.536571
siesta:       Ekinion =       0.000000
siesta: D3 dispersion =       0.000000
siesta:         Total =  -11239.607566
siesta:         Fermi =      -5.201146

siesta: Atomic forces (eV/Ang):
siesta:      1   -0.610704    3.142937    1.679789
siesta:      2   -1.463225   -0.100548   -0.230632
siesta:      3   -0.734899    2.223318    1.579979
siesta:      4   -4.852676    1.199046    0.746507
siesta:      5   -1.019218   -2.276972   -1.995521
siesta:      6    4.075631   -1.370476   -0.997583
siesta:      7   -0.605684    1.396012    0.956738
siesta:      8    1.397971    1.245136   -1.103633
siesta:      9    0.887797    0.648836    2.805293
siesta:     10   -0.091822    0.834015   -2.571217
siesta:     11    1.386024   -3.232414   -0.955345
siesta:     12   -1.529719    0.848255    0.036857
siesta:     13    2.029615    0.460573   -0.679754
siesta:     14    0.136724    0.303927    0.206727
siesta:     15    3.544971   -0.520713    1.767891
siesta:     16   -3.326853    0.466722   -2.714135
siesta:     17   -0.175933   -0.313531   -0.640843
siesta:     18    2.039568    0.253416    0.923064
siesta:     19   -0.502909    2.272931   -0.303733
siesta:     20    0.853096   -0.084725    0.492286
siesta:     21    0.615486    0.861564   -3.047439
siesta:     22   -1.153573    0.748104    0.029225
siesta:     23    1.521438   -0.544952    0.486991
siesta:     24   -3.605977   -0.867660    4.398316
siesta:     25    0.429278   -1.081492   -0.791809
siesta:     26   -1.853438    3.750939    1.548633
siesta:     27   -0.131599   -4.897359   -0.915522
siesta:     28   -3.178423    2.718917    2.487897
siesta:     29    2.577109   -0.380149    0.862997
siesta:     30    0.613545    1.326367   -0.537753
siesta:     31   -3.291858   -1.154269    1.416728
siesta:     32   -1.899113    5.011705    3.298548
siesta:     33    2.113869   -0.974462   -0.703116
siesta:     34    0.469698    2.548813    0.473199
siesta:     35    3.355416    0.193943    0.767624
siesta:     36    0.950861    2.632251    0.971883
siesta:     37    1.991217   -0.951647   -2.317528
siesta:     38   -2.006364   -3.443987   -1.930920
siesta:     39    5.453168   -0.373655    2.233520
siesta:     40   -2.500404    0.263523   -2.193817
siesta:     41   -0.046226    0.430828    2.747293
siesta:     42    4.452956   -1.294630   -0.289716
siesta:     43    1.070364   -2.344156    1.980458
siesta:     44    2.154507    1.195718   -0.034523
siesta:     45    4.077532   -2.945027    0.288191
siesta:     46    1.859577    1.679075   -1.542409
siesta:     47   -0.383198   -2.530581    2.154888
siesta:     48    1.734813   -1.823171   -1.416959
siesta:     49   -3.094939   -1.376320   -0.080549
siesta:     50    0.049153   -3.310129   -3.463501
siesta:     51   -0.799733   -0.346275   -5.360647
siesta:     52   -3.523028    1.088193    2.685203
siesta:     53   -2.442933   -2.322223   -4.458498
siesta:     54    1.918755   -0.812088   -0.508587
siesta:     55   -2.218619    2.778132    3.311263
siesta:     56    0.757769   -3.734347    0.719746
siesta:     57    2.593760    1.613562   -0.619946
siesta:     58   -0.439839    3.170144    0.128892
siesta:     59    0.504703    0.647317    1.305697
siesta:     60   -2.457513    0.102548    0.581086
siesta:     61   -0.431562    0.820555   -0.053558
siesta:     62   -3.069512   -0.552229   -3.304061
siesta:     63    1.479855   -1.704992   -0.277675
siesta:     64   -5.658761   -1.215167   -0.031911
siesta: ----------------------------------------
siesta:    Tot   -0.004029   -0.003023    0.000565

siesta: Stress tensor (static) (eV/Ang**3):
siesta:     0.082685   -0.010566   -0.014195
siesta:    -0.010566    0.068542    0.005086
siesta:    -0.014195    0.005086    0.119918

siesta: Cell volume =        462.648596 Ang**3

siesta: Pressure (static):
siesta:                Solid            Molecule  Units
siesta:          -0.00098438         -0.00169190  Ry/Bohr**3
siesta:          -0.09038140         -0.15534313  eV/Ang**3
siesta:        -144.80697495       -248.88712734  kBar
(Free)E+ p_basis*V_orbitals  =      -11204.739875
(Free)Eharris+ p_basis*V_orbitals  =      -11204.739875

cite: Please see "aiida.bib" for an exhaustive BiBTeX file.
cite: Please clearly indicate Siesta version in published work: NO_VERSION_LABEL_AVAILABLE
cite: This calculation has made use of the following articles
cite: which are encouraged to be cited in a published work.
        Primary SIESTA paper
          DOI: www.doi.org/10.1088/0953-8984/14/11/302

 global_section                   1    1580.522  100.00
  siesta                          1    1580.522  100.00
   Setup                          1       0.217    0.01
    bands                         1       0.000    0.00
    KSV_init                      1       0.000    0.00
   IterGeom                       1    1580.188   99.98
    geom_init                     1       5.943    0.38
     state_init                   1       0.843    0.05
      hsparse                     1       0.032    0.00
      overlap                     1       0.299    0.02
     Setup_H0                     1       4.051    0.26
      naefs                       1       0.003    0.00
      MolMec                      1       0.000    0.00
      kinefsm                     1       0.300    0.02
      nlefsm                      1       1.468    0.09
      DHSCF_Init                  1       2.280    0.14
       DHSCF1                     1       0.043    0.00
        INITMESH                  1       0.000    0.00
       DHSCF2                     1       2.237    0.14
        REMESH                    1       1.296    0.08
         INITMESH                 2       1.117    0.07
          SPLOAD                  2       1.116    0.07
        REORD                     2       0.000    0.00
        PHION                     1       0.722    0.05
        COMM_BSC                  1       0.001    0.00
        POISON                    1       0.006    0.00
         fft                      2       0.005    0.00
     setup_H                      1       1.049    0.07
      DHSCF                       1       1.049    0.07
       DHSCF3                     1       1.049    0.07
        rhoofd                    1       0.553    0.03
        COMM_BSC                  2       0.086    0.01
        POISON                    1       0.005    0.00
         fft                      2       0.004    0.00
        XC                        1       0.042    0.00
         COMM_BSC                 2       0.001    0.00
         GXC-CellXC               1       0.041    0.00
          gridxc@cellXC           1       0.041    0.00
        vmat                      1       0.363    0.02
    IterSCF                      30    1568.952   99.27
     compute_dm                  30    1536.793   97.23
      diagon                     30    1536.776   97.23
       c-eigval                3960     712.511   45.08
        c-buildHS              3960       4.364    0.28
        cdiag                  3960     708.141   44.80
         cdiag1                3960      40.244    2.55
         cdiag2                3960     140.024    8.86
         cdiag3                3960     520.270   32.92
       c-eigvec                3960     737.900   46.69
        cdiag                  3960     733.838   46.43
         cdiag1                3960      40.530    2.56
         cdiag2                3960     140.608    8.90
         cdiag3                3960     519.500   32.87
         cdiag4                3960      27.411    1.73
       c-buildD                3960      85.831    5.43
     setup_H                     30      31.352    1.98
      DHSCF                      30      31.327    1.98
       DHSCF3                    30      31.327    1.98
        rhoofd                   30      16.721    1.06
        COMM_BSC                 60       2.358    0.15
        POISON                   30       0.142    0.01
         fft                     60       0.130    0.01
        XC                       30       1.266    0.08
         COMM_BSC                60       0.018    0.00
         GXC-CellXC              30       1.247    0.08
          gridxc@cellXC          30       1.247    0.08
        vmat                     30      10.824    0.68
     MIXER                       29       0.148    0.01
    PostSCF                       1       5.280    0.33
     naefs                        1       0.002    0.00
     kinefsm                      1       0.020    0.00
     nlefsm                       1       0.147    0.01
     DHSCF                        1       4.562    0.29
      DHSCF3                      1       1.048    0.07
       rhoofd                     1       0.573    0.04
       COMM_BSC                   2       0.073    0.00
       POISON                     1       0.005    0.00
        fft                       2       0.004    0.00
       XC                         1       0.037    0.00
        COMM_BSC                  2       0.001    0.00
        GXC-CellXC                1       0.036    0.00
         gridxc@cellXC            1       0.036    0.00
       vmat                       1       0.360    0.02
      DHSCF4                      1       3.514    0.22
       REORD                     10       0.000    0.00
       COMM_BSC                   2       0.014    0.00
       dfscf                      1       3.400    0.22
     overfsm                      1       0.020    0.00
     MolMec                       1       0.000    0.00
     writeHSX                     1       0.034    0.00
    state_analysis                1       0.001    0.00
    siesta_move                   1       0.000    0.00
   Analysis                       1       0.114    0.01
    optical                       1       0.000    0.00

>> End of run:  21-APR-2024  16:47:40
Job completed