Runtime information:
* Directory : /home/ICN2/jgarridoa/aiida_run/e4/69/d244-8cc2-4028-b352-c2990de9dba9
>> Start of run:  15-APR-2024  10:51:42

reinit: Reading from standard input
reinit: Dumping input in INPUT_TMP.37299
************************** Dump of input data file ****************************
atomiccoordinatesformat Ang
cdfsave True
dminitspinaf False
dmmixingweight 0.025
dmmixscf1 True
dmnumberpulay 10
dmtolerance 1e-05
electronictemperature 50.000 K
geometrymustconverge T
latticeconstant 1.0 Ang
maxscfiterations 1000
meshcutoff 400 Ry
noncollinearspin False
numberofatoms 8
numberofspecies 2
savehs True
solutionmethod diagon
spinorbit False
spinpolarized False
systemlabel aiida
systemname aiida
usetreetimer T
writedmhsnetcdf True
writeorbmom True
xcauthors PBEsol
xcfunctional GGA
xmlwrite T
#
# -- Basis Set Info follows
#
PAO-BasisSize DZP
PAO-SplitNorm 0.15
PAO-EnergyShift 0.005 Ry
#
# -- Structural Info follows
#
%block chemicalspecieslabel
    1     5      B
    2     7      N
%endblock chemicalspecieslabel
%block lattice-vectors
      4.5153100000       0.0000000000       0.0000000000
      0.0000000000       2.4952100000       0.0000000000
      0.0000000000       0.0000000000       6.7588000000
%endblock lattice-vectors
%block atomiccoordinatesandatomicspecies
      0.0870551768       2.4948357185       0.0009462320    1      B      1
      0.8076986528       1.2758757293       0.0018248760    2      N      2
      2.9231213878       2.4948357185       0.0009462320    1      B      3
      2.2162947604       1.2614534155       0.0010814080    2      N      4
      4.4863668629       0.0070863964       3.3838608080    2      N      5
      0.6654663878       1.2614284634       3.3702080320    1      B      6
      3.0645860501       0.0147466911       3.3710190880    2      N      7
      2.3447101768       1.2614284634       3.3702080320    1      B      8
%endblock atomiccoordinatesandatomicspecies
#
# -- K-points Info follows
#
%block kgrid_monkhorst_pack
    16      0      0       0.0000000000
     0     16      0       0.0000000000
     0      0     16       0.0000000000
%endblock kgrid_monkhorst_pack
#
#
maxwalltime 7200000
************************** End of input data file *****************************

reinit: -----------------------------------------------------------------------
reinit: System Name: aiida
reinit: -----------------------------------------------------------------------
reinit: System Label: aiida
reinit: -----------------------------------------------------------------------

initatom: Reading input for the pseudopotentials and atomic orbitals ----------
Species number:   1 Atomic number:    5 Label: B
Species number:   2 Atomic number:    7 Label: N

---- Processing specs for species: B
Ground state valence configuration:   2s02  2p01
Reading pseudopotential information in PSML from:
  B.psml
PSML file version: 1.1
GGA--PBEsol XC_GGA_X_PBE_SOL--XC_GGA_C_PBE_SOL ps
PSML uuid: 4c4355a0-1d5f-11e8-6182-f22cff9f01b0

---- Processing specs for species: N
Ground state valence configuration:   2s02  2p03
Reading pseudopotential information in PSML from:
  N.psml
PSML file version: 1.1
GGA--PBEsol XC_GGA_X_PBE_SOL--XC_GGA_C_PBE_SOL ps
PSML uuid: 56b43770-1d5f-11e8-525f-e1e3c77dc801

---- Pseudopotential check for B

Pseudized shells:
2s( 2.00) rc: 1.21
2p( 1.00) rc: 1.21
Valence configuration for ps generation: 2s:2p: Total charge:   3.000000

---- Pseudopotential check for N

Pseudized shells:
2s( 2.00) rc: 1.21
2p( 3.00) rc: 1.36
Valence configuration for ps generation: 2s:2p: Total charge:   5.000000
For B, standard SIESTA heuristics set lmxkb to 3
 (one more than the basis l, including polarization orbitals).
Use PS.lmax or PS.KBprojectors blocks to override.
For N, standard SIESTA heuristics set lmxkb to 3
 (one more than the basis l, including polarization orbitals).
Use PS.lmax or PS.KBprojectors blocks to override.
B pseudopotential only contains V_ls up to l=1 -- lmxkb reset.
N pseudopotential only contains V_ls up to l=1 -- lmxkb reset.

<basis_specs>
B                    Z=   5    Mass=  10.810        Charge= 0.17977+309
Lmxo=2 Lmxkb= 1    BasisType=split      Semic=F
L=0  Nsemic=0  Cnfigmx=2
          i=1  nzeta=2  polorb=0  (2s)
            splnorm:   0.15000
               vcte:    40.000
               rinn:  -0.90000
               qcoe:    0.0000
               qyuk:    0.0000
               qwid:   0.10000E-01
                rcs:    0.0000      0.0000
            lambdas:    1.0000      1.0000
L=1  Nsemic=0  Cnfigmx=2
          i=1  nzeta=2  polorb=1  (2p)  (to be polarized perturbatively)
            splnorm:   0.15000
               vcte:    40.000
               rinn:  -0.90000
               qcoe:    0.0000
               qyuk:    0.0000
               qwid:   0.10000E-01
                rcs:    0.0000      0.0000
            lambdas:    1.0000      1.0000
L=2  Nsemic=0  Cnfigmx=3
          i=1  nzeta=0  polorb=0  (3d)  (perturbative polarization orbital) (from 2p)
L=0  Nkbl=1  erefs: 0.17977+309
L=1  Nkbl=1  erefs: 0.17977+309
</basis_specs>

Using PAO.SplitTailNorm
atom: Called for B                     (Z =   5)
NOTE: B pseudopotential has channels up to l= 1
NOTE: PAOs with higher l will be generated with V_local
Maximum radius (at nrval) set to   50.00000 8518

read_vps: Pseudopotential generation method:
read_vps: ONCVPSP-3.Hamann's oncvpsp
Valence charge in pseudo generation:    3.00000

read_vps: Pseudopotential includes a core correction:
read_vps: Pseudo-core for xc-correction

xc_check: Exchange-correlation functional:
xc_check: GGA PBEsol
Got Vlocal (oncv-fit) from psml data
Choosing vlocal chloc cutoff:  3.201794
qtot up to nchloc:    3.00023194
atom: Maximum radius for chlocal:    3.20179
atom: Maximum radius for r*vlocal+2*Zval:    3.20179
Reading KB projs from B psml data
Using scalar-relativistic projectors in PSML file

PSML: Kleinman-Bylander projectors:
   l= 0   rc=  1.223468   Ekb= 16.933205
   l= 0   rc=  1.223468   Ekb=  2.495260
   l= 1   rc=  1.223468   Ekb= -7.218359
   l= 1   rc=  1.223468   Ekb= -1.645242

PSML: Total number of  Kleinman-Bylander projectors:   8
atom: -------------------------------------------------------------------------

atom: SANKEY-TYPE ORBITALS:
atom: Selected multiple-zeta basis: split

SPLIT: Orbitals with angular momentum L= 0

SPLIT: Basis orbitals for state 2s

SPLIT: PAO cut-off radius determined from an
SPLIT: energy shift=  0.005000 Ry
Split based on tail norm

   izeta = 1
                 lambda =    1.000000
                     rc =    5.714927
                 energy =   -0.682223
                kinetic =    0.604116
    potential(screened) =   -1.286339
       potential(ionic) =   -3.302390

   izeta = 2
                 rmatch =    3.823698
              splitnorm =    0.150000
                 energy =   -0.502064
                kinetic =    1.116406
    potential(screened) =   -1.618470
       potential(ionic) =   -3.792969

[...]

SPLIT: Basis orbitals for state 2p

[...]

   izeta = 2
                 rmatch =    4.748011
              splitnorm =    0.150000
                 energy =   -0.176810
                kinetic =    2.206388
    potential(screened) =   -2.383198
       potential(ionic) =   -4.488680
*Note: V_local used for l= 2

** Using vlocal for PAOs with L= 2

POLgen: Perturbative polarization orbital with L=  2

POLgen: Polarization orbital for state 2p
*Note: V_local used for lpol= 2

** Using vlocal for PAOs with L= 2
Split based on tail norm

   izeta = 1
                     rc =    7.066857
                 energy =    0.676401
                kinetic =    1.417761
    potential(screened) =   -0.741360
       potential(ionic) =   -2.355753
atom: Total number of Sankey-type orbitals: 13

atm_pop: Valence configuration (for local Pseudopot. screening):
 2s( 2.00)
 2p( 1.00)
 3d( 0.00)
Vna: chval, zval:    3.00000   3.00000

Vna:  Cut-off radius for the neutral-atom potential:   7.066857
comcore: Pseudo-core radius Rcore=  1.975419

atom: _________________________________________________________________________

<basis_specs>
N                    Z=   7    Mass=  14.007        Charge= 0.17977+309
Lmxo=2 Lmxkb= 1    BasisType=split      Semic=F
L=0  Nsemic=0  Cnfigmx=2
          i=1  nzeta=2  polorb=0  (2s)
            splnorm:   0.15000
               vcte:    40.000
               rinn:  -0.90000
               qcoe:    0.0000
               qyuk:    0.0000
               qwid:   0.10000E-01
                rcs:    0.0000      0.0000
            lambdas:    1.0000      1.0000
L=1  Nsemic=0  Cnfigmx=2
          i=1  nzeta=2  polorb=1  (2p)  (to be polarized perturbatively)
            splnorm:   0.15000
               vcte:    40.000
               rinn:  -0.90000
               qcoe:    0.0000
               qyuk:    0.0000
               qwid:   0.10000E-01
                rcs:    0.0000      0.0000
            lambdas:    1.0000      1.0000
L=2  Nsemic=0  Cnfigmx=3
          i=1  nzeta=0  polorb=0  (3d)  (perturbative polarization orbital) (from 2p)
L=0  Nkbl=1  erefs: 0.17977+309
L=1  Nkbl=1  erefs: 0.17977+309
</basis_specs>

Using PAO.SplitTailNorm
atom: Called for N                     (Z =   7)
NOTE: N pseudopotential has channels up to l= 1
NOTE: PAOs with higher l will be generated with V_local
Maximum radius (at nrval) set to   50.00000 8518

read_vps: Pseudopotential generation method:
read_vps: ONCVPSP-3.Hamann's oncvpsp
Valence charge in pseudo generation:    5.00000

read_vps: Pseudopotential includes a core correction:
read_vps: Pseudo-core for xc-correction

xc_check: Exchange-correlation functional:
xc_check: GGA PBEsol
Got Vlocal (oncv-fit) from psml data
Choosing vlocal chloc cutoff:  6.038618
qtot up to nchloc:    4.99997633
atom: Maximum radius for chlocal:    6.03862
atom: Maximum radius for r*vlocal+2*Zval:    6.03862
Reading KB projs from N psml data
Using scalar-relativistic projectors in PSML file

PSML: Kleinman-Bylander projectors:
   l= 0   rc=  1.214864   Ekb= 14.928379
   l= 0   rc=  1.221004   Ekb=  1.251736
   l= 1   rc=  1.375180   Ekb= -8.619428
   l= 1   rc=  1.375180   Ekb= -2.025883

PSML: Total number of  Kleinman-Bylander projectors:   8
atom: -------------------------------------------------------------------------

atom: SANKEY-TYPE ORBITALS:
atom: Selected multiple-zeta basis: split

[...]

SPLIT: Basis orbitals for state 2s

[...]

   izeta = 2
                 rmatch =    2.696970
              splitnorm =    0.150000
                 energy =   -1.041987
                kinetic =    2.172223
    potential(screened) =   -3.214210
       potential(ionic) =   -9.191634

SPLIT: Orbitals with angular momentum L= 1

SPLIT: Basis orbitals for state 2p

SPLIT: PAO cut-off radius determined from an
SPLIT: energy shift=  0.005000 Ry
Split based on tail norm

   izeta = 1
                 lambda =    1.000000
                     rc =    5.253677
                 energy =   -0.511511
                kinetic =    3.468518
    potential(screened) =   -3.980029
       potential(ionic) =   -9.293867

   izeta = 2
                 rmatch =    3.312873
              splitnorm =    0.150000
[...]
redata: EDM tolerance for SCF                       =     0.001000 eV
redata: Require H convergence for SCF               =   T
redata: Hamiltonian tolerance for SCF               =     0.001000 eV
redata: Require (free) Energy convergence for SCF   =   F
redata: (free) Energy tolerance for SCF             =     0.000100 eV
redata: Using DFT-D3 dispersion                     =   F
redata: Using Saved Data (generic)                  =   F
redata: Use continuation files for DM               =   T
redata: Neglect nonoverlap interactions             =   F
redata: Method of Calculation                       = Diagonalization
redata: Electronic Temperature                      =    50.0000 K
redata: Fix the spin of the system                  =   F
redata: Max. number of TDED Iter                    =        1
redata: Number of TDED substeps                     =        3
redata: Dynamics option                             = Single-point calculation
mix.SCF: Pulay mixing                            = Pulay
mix.SCF:    Variant                              = stable
mix.SCF:    History steps                        = 10
mix.SCF:    Linear mixing weight                 =     0.025000
mix.SCF:    Mixing weight                        =     0.025000
mix.SCF:    SVD condition                        = 0.1000E-07
redata: ***********************************************************************

%block SCF.Mixers
  Pulay
%endblock SCF.Mixers

%block SCF.Mixer.Pulay
  # Mixing method
  method pulay
  variant stable

  # Mixing options
  weight 0.0250
  weight.linear 0.0250
  history 10
%endblock SCF.Mixer.Pulay

DM_history_depth set to one: no extrapolation allowed by default for geometry relaxation
Size of DM history Fstack: 1
Total number of electrons:    32.000000
Total ionic charge:    32.000000

* ProcessorY, Blocksize:    3   4

* Orbital distribution balance (max,min):     8     4

k-point displ. along   1 input, could be:     0.00    0.50
k-point displ. along   2 input, could be:     0.00    0.50
k-point displ. along   3 input, could be:     0.00    0.50
 Kpoints in:         2304 . Kpoints trimmed:         2192

siesta: k-grid: Number of k-points = 2192
siesta: k-points from Monkhorst-Pack grid
siesta: k-cutoff (effective) =    19.962 Ang
siesta: k-point supercell and displacements
siesta: k-grid:    16     0     0      0.000
siesta: k-grid:     0    16     0      0.000
siesta: k-grid:     0     0    16      0.000

diag: Algorithm                                     = D&C
diag: Parallel over k                               =   F
diag: Use parallel 2D distribution                  =   T
diag: Parallel block-size                           = 4
diag: Parallel distribution                         =     4 x     6
diag: Used triangular part                          = Lower
diag: Absolute tolerance                            =  0.100E-15
diag: Orthogonalization factor                      =  0.100E-05

superc: Internal auxiliary supercell:     5 x     7 x     3  =     105
superc: Number of atoms, orbitals, and projectors:    840  10920   6720

ts: **************************************************************
ts: Save H and S matrices                           =    F
ts: Save DM and EDM matrices                        =    F
ts: Only save the overlap matrix S                  =    F
ts: **************************************************************

************************ Begin: TS CHECKS AND WARNINGS ************************
************************ End: TS CHECKS AND WARNINGS **************************

                        Single-point calculation

superc: Internal auxiliary supercell:     5 x     7 x     3  =     105
superc: Number of atoms, orbitals, and projectors:    840  10920   6720

outcell: Unit cell vectors (Ang):
        4.515310    0.000000    0.000000
        0.000000    2.495210    0.000000
        0.000000    0.000000    6.758800

outcell: Cell vector modules (Ang)   :    4.515310    2.495210    6.758800
outcell: Cell angles (23,13,12) (deg):     90.0000     90.0000     90.0000
outcell: Cell volume (Ang**3)        :     76.1490
<dSpData1D:S at geom step 0
  <sparsity:sparsity for geom step 0
    nrows_g=104 nrows=8 sparsity=1.1259 nnzs=12178, refcount: 7>
  <dData1D:(new from dSpData1D) n=12178, refcount: 1>
refcount: 1>
new_DM -- step:     1
Initializing Density Matrix...

Attempting to read DM from file... Failed...
DM filled with atomic data:
<dSpData2D:DM initialized from atoms
  <sparsity:sparsity for geom step 0
    nrows_g=104 nrows=8 sparsity=1.1259 nnzs=12178, refcount: 8>
  <dData2D:DM n=12178 m=1, refcount: 1>
refcount: 1>
No. of atoms with KB's overlaping orbs in proc 0. Max # of overlaps:      70     288

InitMesh: MESH = 60 x 32 x 90 = 172800
InitMesh: Mesh cutoff (required, used) =   400.000   454.556 Ry
New grid distribution [1]: sub = 2
New grid distribution [2]: sub = 2
New grid distribution [3]: sub = 2
Setting up quadratic distribution...

stepf: Fermi-Dirac step function

siesta: Program's energy decomposition (eV):
siesta: Ebs     =      -441.854089
siesta: Eions   =      2442.366599
siesta: Ena     =       598.169585
siesta: Ekin    =      1032.148286
siesta: Enl     =      -111.917783
siesta: Eso     =         0.000000
siesta: Edftu   =         0.000000
siesta: DEna    =       -59.020448
siesta: DUscf   =         6.640877
siesta: DUext   =         0.000000
siesta: Ex      =      -426.843932
siesta: Ec      =       -42.446969
siesta: Exc     =      -469.290901
siesta: EbV     =         0.000000
siesta: eta*DQ  =         0.000000
siesta: Emadel  =         0.000000
siesta: Emeta   =         0.000000
siesta: Emolmec =         0.000000
siesta: Ekinion =         0.000000
siesta: Eharris =     -1430.146069
siesta: Etot    =     -1445.636984
siesta: FreeEng =     -1445.636984

        iscf     Eharris(eV)        E_KS(eV)     FreeEng(eV)     dDmax    Ef(eV) dHmax(eV)
   scf:    1    -1430.146069    -1445.636984    -1445.636984  1.780473 -6.451777  3.028188
 IterSCF                          1      22.615  100.00
  compute_dm                      1      22.476   99.39
  setup_H                         1       0.136    0.60
  MIXER                           1       0.000    0.00
   scf:    2    -1445.849340    -1445.743722    -1445.743722  0.021466 -6.405330  2.888729
   scf:    3    -1447.369421    -1446.857164    -1446.857164  0.459598 -5.407425  0.581648
   scf:    4    -1446.783990    -1446.891881    -1446.891881  0.024386 -5.657968  0.848859
   scf:    5    -1446.986520    -1446.948967    -1446.948967  0.058893 -5.498396  0.287121
   scf:    6    -1446.946689    -1446.951091    -1446.951091  0.008136 -5.395684  0.146066
   scf:    7    -1446.959754    -1446.956246    -1446.956246  0.021941 -5.372265  0.078768
   scf:    8    -1446.955249    -1446.956213    -1446.956213  0.002082 -5.401056  0.064205
   scf:    9    -1446.956413    -1446.956317    -1446.956317  0.001207 -5.397607  0.049543
   scf:   10    -1446.956656    -1446.956599    -1446.956599  0.001689 -5.393552  0.003978
mix: Pulay -- inversion failed, > SVD [rank/size] 6 / 9
   scf:   11    -1446.956602    -1446.956601    -1446.956601  0.000060 -5.394158  0.002702
mix: Pulay -- inversion failed, > SVD [rank/size] 6 / 9
   scf:   12    -1446.956601    -1446.956601    -1446.956601  0.000009 -5.394119  0.002412
   scf:   13    -1446.956603    -1446.956602    -1446.956602  0.000347 -5.393871  0.000515
mix: Pulay -- inversion failed, > SVD [rank/size] 6 / 9
   scf:   14    -1446.956602    -1446.956602    -1446.956602  0.000071 -5.393789  0.000108
   scf:   15    -1446.956602    -1446.956602    -1446.956602  0.000012 -5.393823  0.000160
   scf:   16    -1446.956602    -1446.956602    -1446.956602  0.000002 -5.393794  0.000022

SCF Convergence by DM+H criterion
max |DM_out - DM_in|         :     0.0000022926
max |H_out - H_in|      (eV) :     0.0000224291
SCF cycle converged after 16 iterations

Using DM_out to compute the final energy and forces
No. of atoms with KB's overlaping orbs in proc 0. Max # of overlaps:      70     288

siesta: E_KS(eV) =            -1446.9566

siesta: E_KS - E_eggbox =     -1446.9566

siesta: Atomic forces (eV/Ang):
   Tot    0.005060   -0.002451    0.001037
   Max    1.095529
   Res    0.409070    sqrt( Sum f_i^2 / 3N )
   Max    1.095529    constrained

Stress tensor Voigt[x,y,z,yz,xz,xy] (kbar):     -129.28      -45.95        7.54       -0.08        0.19        3.79
(Free)E + p*V (eV/cell)    -1444.2999
Target enthalpy (eV/cell)    -1446.9566

siesta: Program's energy decomposition (eV):
siesta: Ebs     =      -470.003849
siesta: Eions   =      2442.366599
siesta: Ena     =       598.169585
siesta: Ekin    =       993.707074
siesta: Enl     =      -102.118948
siesta: Eso     =         0.000000
siesta: Edftu   =         0.000000
siesta: DEna    =       -35.827204
siesta: DUscf   =         3.539936
siesta: DUext   =         0.000000
siesta: Ex      =      -419.512000
siesta: Ec      =       -42.548446
siesta: Exc     =      -462.060446
siesta: EbV     =         0.000000
siesta: eta*DQ  =         0.000000
siesta: Emadel  =         0.000000
siesta: Emeta   =         0.000000
siesta: Emolmec =         0.000000
siesta: Ekinion =         0.000000
siesta: Eharris =     -1446.956602
siesta: Etot    =     -1446.956602
siesta: FreeEng =     -1446.956602

siesta: Final energy (eV):
siesta:  Band Struct. =    -470.003849
siesta:       Kinetic =     993.707074
siesta:       Hartree =     475.421110
siesta:         Edftu =       0.000000
siesta:       Eso     =       0.000000
siesta:    Ext. field =       0.000000
siesta:         Exch. =    -419.512000
siesta:         Corr. =     -42.548446
siesta:     Bulk bias =       0.000000
siesta:   Exch.-corr. =    -462.060446
siesta:  Ion-electron =   -1889.238659
siesta:       Ion-ion =    -564.785681
siesta:       Ekinion =       0.000000
siesta: D3 dispersion =       0.000000
siesta:         Total =   -1446.956602
siesta:         Fermi =      -5.393794

siesta: Atomic forces (eV/Ang):
siesta:      1    0.307356    1.005423   -0.000732
siesta:      2   -0.453085   -1.095529    0.000539
siesta:      3    0.095628    0.550410    0.001440
siesta:      4    0.051662   -0.470422   -0.006466
siesta:      5   -0.630199    0.315428   -0.109312
siesta:      6    0.363158   -0.264263    0.070091
siesta:      7   -0.188145   -0.068264    0.053425
siesta:      8    0.458685    0.024766   -0.007947
siesta: ----------------------------------------
siesta:    Tot    0.005060   -0.002451    0.001037

siesta: Stress tensor (static) (eV/Ang**3):
siesta:    -0.080688    0.002365    0.000120
siesta:     0.002365   -0.028680   -0.000048
siesta:     0.000120   -0.000048    0.004704

siesta: Cell volume =         76.149011 Ang**3

siesta: Pressure (static):
siesta:                Solid            Molecule  Units
siesta:           0.00037998          0.00040057  Ry/Bohr**3
siesta:           0.03488783          0.03677861  eV/Ang**3
siesta:          55.89646200         58.92582349  kBar
(Free)E+ p_basis*V_orbitals  =       -1442.372588
(Free)Eharris+ p_basis*V_orbitals  =       -1442.372588

cite: Please see "aiida.bib" for an exhaustive BiBTeX file.
cite: Please clearly indicate Siesta version in published work: NO_VERSION_LABEL_AVAILABLE
cite: This calculation has made use of the following articles
cite: which are encouraged to be cited in a published work.
        Primary SIESTA paper
          DOI: www.doi.org/10.1088/0953-8984/14/11/302

 global_section                   1     368.291  100.00
  siesta                          1     368.291  100.00
   Setup                          1       0.293    0.08
    bands                         1       0.000    0.00
    KSV_init                      1       0.000    0.00
   IterGeom                       1     367.725   99.85
    geom_init                     1       1.189    0.32
     state_init                   1       0.163    0.04
      hsparse                     1       0.006    0.00
      overlap                     1       0.087    0.02
     Setup_H0                     1       0.886    0.24
      naefs                       1       0.001    0.00
      MolMec                      1       0.000    0.00
      kinefsm                     1       0.064    0.02
      nlefsm                      1       0.307    0.08
      DHSCF_Init                  1       0.513    0.14
       DHSCF1                     1       0.043    0.01
        INITMESH                  1       0.000    0.00
       DHSCF2                     1       0.470    0.13
        REMESH                    1       0.142    0.04
         INITMESH                 2       0.033    0.01
          SPLOAD                  2       0.032    0.01
        REORD                     2       0.000    0.00
        PHION                     1       0.239    0.06
        COMM_BSC                  1       0.000    0.00
        POISON                    1       0.001    0.00
         fft                      2       0.001    0.00
     setup_H                      1       0.140    0.04
      DHSCF                       1       0.140    0.04
       DHSCF3                     1       0.140    0.04
        rhoofd                    1       0.076    0.02
        COMM_BSC                  2       0.008    0.00
        POISON                    1       0.001    0.00
         fft                      2       0.001    0.00
        XC                        1       0.009    0.00
         COMM_BSC                 2       0.000    0.00
         GXC-CellXC               1       0.009    0.00
          gridxc@cellXC           1       0.009    0.00
        vmat                      1       0.046    0.01
    IterSCF                      16     366.053   99.39
     compute_dm                  16     363.661   98.74
      diagon                     16     363.659   98.74
       c-eigval               35072     170.458   46.28
        c-buildHS             35072       5.910    1.60
        cdiag                 35072     164.521   44.67
         cdiag1               35072       9.503    2.58
         cdiag2               35072      22.023    5.98
         cdiag3               35072     129.738   35.23
       c-eigvec               35072     178.995   48.60
        cdiag                 35072     173.087   47.00
         cdiag1               35072       9.615    2.61
         cdiag2               35072      22.269    6.05
         cdiag3               35072     130.465   35.42
         cdiag4               35072       6.324    1.72
       c-buildD               35072      13.984    3.80
     setup_H                     16       2.347    0.64
      DHSCF                      16       2.345    0.64
       DHSCF3                    16       2.345    0.64
        rhoofd                   16       1.192    0.32
        COMM_BSC                 32       0.226    0.06
        POISON                   16       0.016    0.00
         fft                     32       0.015    0.00
        XC                       16       0.140    0.04
         COMM_BSC                32       0.002    0.00
         GXC-CellXC              16       0.139    0.04
          gridxc@cellXC          16       0.139    0.04
        vmat                     16       0.768    0.21
     MIXER                       15       0.007    0.00
    PostSCF                       1       0.482    0.13
     naefs                        1       0.000    0.00
     kinefsm                      1       0.003    0.00
     nlefsm                       1       0.044    0.01
     DHSCF                        1       0.373    0.10
      DHSCF3                      1       0.140    0.04
       rhoofd                     1       0.074    0.02
       COMM_BSC                   2       0.008    0.00
       POISON                     1       0.001    0.00
        fft                       2       0.001    0.00
       XC                         1       0.008    0.00
        COMM_BSC                  2       0.000    0.00
        GXC-CellXC                1       0.008    0.00
         gridxc@cellXC            1       0.008    0.00
       vmat                       1       0.049    0.01
      DHSCF4                      1       0.232    0.06
       REORD                     10       0.000    0.00
       COMM_BSC                   2       0.001    0.00
       dfscf                      1       0.185    0.05
     overfsm                      1       0.003    0.00
     MolMec                       1       0.000    0.00
     writeHSX                     1       0.004    0.00
    state_analysis                1       0.001    0.00
    siesta_move                   1       0.000    0.00
   Analysis                       1       0.272    0.07
    optical                       1       0.000    0.00

>> End of run:  15-APR-2024  10:57:51
Job completed