Runtime information:
* Directory : /home/ICN2/jgarridoa/aiida_run/fc/d9/3eab-5fe6-4e8d-a0ca-6d23fb35f6df
>> Start of run:  17-APR-2024   1:38:30

reinit: Reading from standard input
reinit: Dumping input in INPUT_TMP.44656
************************** Dump of input data file ****************************
atomiccoordinatesformat Ang
cdfsave True
dminitspinaf False
dmmixingweight 0.025
dmmixscf1 True
dmnumberpulay 10
dmtolerance 1e-05
electronictemperature 50.000 K
geometrymustconverge T
latticeconstant 1.0 Ang
maxscfiterations 1000
meshcutoff 400 Ry
noncollinearspin False
numberofatoms 2
numberofspecies 2
savehs True
solutionmethod diagon
spinorbit False
spinpolarized False
systemlabel aiida
systemname aiida
usetreetimer T
writedmhsnetcdf True
writeorbmom True
xcauthors PBEsol
xcfunctional GGA
xmlwrite T
#
# -- Basis Set Info follows
#
PAO-BasisSize DZP
PAO-SplitNorm 0.15
PAO-EnergyShift 0.005 Ry
#
# -- Structural Info follows
#
%block chemicalspecieslabel
    1     7      N
    2     5      B
%endblock chemicalspecieslabel
%block lattice-vectors
      3.5999900000       0.0000000000       0.0000000000
      0.0000000000       3.5999900000       0.0000000000
      0.0000000000       0.0000000000       3.5999900000
%endblock lattice-vectors
%block atomiccoordinatesandatomicspecies
      0.0000000000       0.0000000000       3.3314667459    1      N      1
      0.0000000000       0.0000000000       1.7464991486    2      B      2
%endblock atomiccoordinatesandatomicspecies
#
# -- K-points Info follows
#
%block kgrid_monkhorst_pack
    12      0      0       0.0000000000
     0     12      0       0.0000000000
     0      0     12       0.0000000000
%endblock kgrid_monkhorst_pack
#
#
maxwalltime 7200000
************************** End of input data file *****************************

reinit: -----------------------------------------------------------------------
reinit: System Name: aiida
reinit: -----------------------------------------------------------------------
reinit: System Label: aiida
reinit: -----------------------------------------------------------------------

initatom: Reading input for the pseudopotentials and atomic orbitals ----------
Species number:   1 Atomic number:    7 Label: N
Species number:   2 Atomic number:    5 Label: B

---- Processing specs for species: N
Ground state valence configuration:   2s02  2p03
Reading pseudopotential information in PSML from:
  N.psml
PSML file version: 1.1
GGA--PBEsol XC_GGA_X_PBE_SOL--XC_GGA_C_PBE_SOL ps
PSML uuid: 56b43770-1d5f-11e8-525f-e1e3c77dc801

---- Processing specs for species: B
Ground state valence configuration:   2s02  2p01
Reading pseudopotential information in PSML from:
  B.psml
PSML file version: 1.1
GGA--PBEsol XC_GGA_X_PBE_SOL--XC_GGA_C_PBE_SOL ps
PSML uuid: 4c4355a0-1d5f-11e8-6182-f22cff9f01b0

---- Pseudopotential check for N

Pseudized shells:
2s( 2.00) rc: 1.21
2p( 3.00) rc: 1.36
Valence configuration for ps generation: 2s:2p: Total charge:   5.000000

---- Pseudopotential check for B

Pseudized shells:
2s( 2.00) rc: 1.21
2p( 1.00) rc: 1.21
Valence configuration for ps generation: 2s:2p: Total charge:   3.000000
For N, standard SIESTA heuristics set lmxkb to 3
 (one more than the basis l, including polarization orbitals).
Use PS.lmax or PS.KBprojectors blocks to override.
For B, standard SIESTA heuristics set lmxkb to 3
 (one more than the basis l, including polarization orbitals).
Use PS.lmax or PS.KBprojectors blocks to override.
N pseudopotential only contains V_ls up to l=1 -- lmxkb reset.
B pseudopotential only contains V_ls up to l=1 -- lmxkb reset.

<basis_specs>
N                    Z=   7    Mass=  14.007        Charge= 0.17977+309
Lmxo=2 Lmxkb= 1    BasisType=split      Semic=F
L=0  Nsemic=0  Cnfigmx=2
          i=1  nzeta=2  polorb=0  (2s)
            splnorm:   0.15000
               vcte:    40.000
               rinn:  -0.90000
               qcoe:    0.0000
               qyuk:    0.0000
               qwid:   0.10000E-01
                rcs:    0.0000      0.0000
            lambdas:    1.0000      1.0000
L=1  Nsemic=0  Cnfigmx=2
          i=1  nzeta=2  polorb=1  (2p)  (to be polarized perturbatively)
            splnorm:   0.15000
               vcte:    40.000
               rinn:  -0.90000
               qcoe:    0.0000
               qyuk:    0.0000
               qwid:   0.10000E-01
                rcs:    0.0000      0.0000
            lambdas:    1.0000      1.0000
L=2  Nsemic=0  Cnfigmx=3
          i=1  nzeta=0  polorb=0  (3d)  (perturbative polarization orbital) (from 2p)
L=0  Nkbl=1  erefs: 0.17977+309
L=1  Nkbl=1  erefs: 0.17977+309
</basis_specs>

Using PAO.SplitTailNorm
atom: Called for N                     (Z =   7)
NOTE: N pseudopotential has channels up to l= 1
NOTE: PAOs with higher l will be generated with V_local
Maximum radius (at nrval) set to   50.00000 8518

read_vps: Pseudopotential generation method:
read_vps: ONCVPSP-3.Hamann's oncvpsp
Valence charge in pseudo generation:    5.00000

read_vps: Pseudopotential includes a core correction:
read_vps: Pseudo-core for xc-correction

xc_check: Exchange-correlation functional:
xc_check: GGA PBEsol
Got Vlocal (oncv-fit) from psml data
Choosing vlocal chloc cutoff:  6.038618
qtot up to nchloc:    4.99997633
atom: Maximum radius for chlocal:    6.03862
atom: Maximum radius for r*vlocal+2*Zval:    6.03862
Reading KB projs from N psml data
Using scalar-relativistic projectors in PSML file

PSML: Kleinman-Bylander projectors:
   l= 0   rc=  1.214864   Ekb= 14.928379
   l= 0   rc=  1.221004   Ekb=  1.251736
   l= 1   rc=  1.375180   Ekb= -8.619428
   l= 1   rc=  1.375180   Ekb= -2.025883

PSML: Total number of  Kleinman-Bylander projectors:   8
atom: -------------------------------------------------------------------------

atom: SANKEY-TYPE ORBITALS:
atom: Selected multiple-zeta basis: split

SPLIT: Orbitals with angular momentum L= 0

SPLIT: Basis orbitals for state 2s

SPLIT: PAO cut-off radius determined from an
SPLIT: energy shift=  0.005000 Ry
Split based on tail norm

   izeta = 1
                 lambda =    1.000000
                     rc =    4.265195
                 energy =   -1.350827
                kinetic =    1.238925
    potential(screened) =   -2.589752
       potential(ionic) =   -8.091187

   izeta = 2
                 rmatch =    2.696970
              splitnorm =    0.150000
                 energy =   -1.041987
                kinetic =    2.172223
    potential(screened) =   -3.214210
       potential(ionic) =   -9.191634

[...]

SPLIT: Basis orbitals for state 2p

[...]

   izeta = 2
                 rmatch =    3.312873
              splitnorm =    0.150000
                 energy =   -0.376057
                kinetic =    4.835938
    potential(screened) =   -5.211995
       potential(ionic) =  -11.044105
*Note: V_local used for l= 2

** Using vlocal for PAOs with L= 2

POLgen: Perturbative polarization orbital with L=  2

POLgen: Polarization orbital for state 2p
*Note: V_local used for lpol= 2

** Using vlocal for PAOs with L= 2
Split based on tail norm

   izeta = 1
                     rc =    5.253677
                 energy =    1.558482
                kinetic =    2.921564
    potential(screened) =   -1.363082
       potential(ionic) =   -5.578203
atom: Total number of Sankey-type orbitals: 13

atm_pop: Valence configuration (for local Pseudopot. screening):
 2s( 2.00)
 2p( 3.00)
 3d( 0.00)
Vna: chval, zval:    5.00000   5.00000

Vna:  Cut-off radius for the neutral-atom potential:   5.253677
comcore: Pseudo-core radius Rcore=  1.572221

atom: _________________________________________________________________________

<basis_specs>
B                    Z=   5    Mass=  10.810        Charge= 0.17977+309
Lmxo=2 Lmxkb= 1    BasisType=split      Semic=F
L=0  Nsemic=0  Cnfigmx=2
          i=1  nzeta=2  polorb=0  (2s)
            splnorm:   0.15000
               vcte:    40.000
               rinn:  -0.90000
               qcoe:    0.0000
               qyuk:    0.0000
               qwid:   0.10000E-01
                rcs:    0.0000      0.0000
            lambdas:    1.0000      1.0000
L=1  Nsemic=0  Cnfigmx=2
          i=1  nzeta=2  polorb=1  (2p)  (to be polarized perturbatively)
            splnorm:   0.15000
               vcte:    40.000
               rinn:  -0.90000
               qcoe:    0.0000
               qyuk:    0.0000
               qwid:   0.10000E-01
                rcs:    0.0000      0.0000
            lambdas:    1.0000      1.0000
L=2  Nsemic=0  Cnfigmx=3
          i=1  nzeta=0  polorb=0  (3d)  (perturbative polarization orbital) (from 2p)
L=0  Nkbl=1  erefs: 0.17977+309
L=1  Nkbl=1  erefs: 0.17977+309
</basis_specs>

Using PAO.SplitTailNorm
atom: Called for B                     (Z =   5)
NOTE: B pseudopotential has channels up to l= 1
NOTE: PAOs with higher l will be generated with V_local
Maximum radius (at nrval) set to   50.00000 8518

read_vps: Pseudopotential generation method:
read_vps: ONCVPSP-3.Hamann's oncvpsp
Valence charge in pseudo generation:    3.00000

read_vps: Pseudopotential includes a core correction:
read_vps: Pseudo-core for xc-correction

xc_check: Exchange-correlation functional:
xc_check: GGA PBEsol
Got Vlocal (oncv-fit) from psml data
Choosing vlocal chloc cutoff:  3.201794
qtot up to nchloc:    3.00023194
atom: Maximum radius for chlocal:    3.20179
atom: Maximum radius for r*vlocal+2*Zval:    3.20179
Reading KB projs from B psml data
Using scalar-relativistic projectors in PSML file

PSML: Kleinman-Bylander projectors:
   l= 0   rc=  1.223468   Ekb= 16.933205
   l= 0   rc=  1.223468   Ekb=  2.495260
   l= 1   rc=  1.223468   Ekb= -7.218359
   l= 1   rc=  1.223468   Ekb= -1.645242

PSML: Total number of  Kleinman-Bylander projectors:   8
atom: -------------------------------------------------------------------------

atom: SANKEY-TYPE ORBITALS:
atom: Selected multiple-zeta basis: split

[...]

SPLIT: Basis orbitals for state 2s

[...]

   izeta = 2
                 rmatch =    3.823698
              splitnorm =    0.150000
                 energy =   -0.502064
                kinetic =    1.116406
    potential(screened) =   -1.618470
       potential(ionic) =   -3.792969

SPLIT: Orbitals with angular momentum L= 1

SPLIT: Basis orbitals for state 2p

SPLIT: PAO cut-off radius determined from an
SPLIT: energy shift=  0.005000 Ry
Split based on tail norm

   izeta = 1
                 lambda =    1.000000
                     rc =    7.066857
                 energy =   -0.255540
                kinetic =    1.512761
    potential(screened) =   -1.768301
       potential(ionic) =   -3.690166

   izeta = 2
                 rmatch =    4.748011
              splitnorm =    0.150000
                 energy =   -0.176810
                kinetic =    2.206388
    potential(screened) =   -2.383198
       potential(ionic) =   -4.488680
*Note: V_local used for l= 2

** Using vlocal for PAOs with L= 2

POLgen: Perturbative polarization orbital with L=  2

POLgen: Polarization orbital for state 2p
*Note: V_local used for lpol= 2

** Using vlocal for PAOs with L= 2
Split based on tail norm

   izeta = 1
                     rc =    7.066857
[...]
redata: Require Harris convergence for SCF          =   F
redata: Harris energy tolerance for SCF             =     0.000100 eV
redata: Require DM convergence for SCF              =   T
redata: DM tolerance for SCF                        =     0.000010
redata: Require EDM convergence for SCF             =   F
redata: EDM tolerance for SCF                       =     0.001000 eV
redata: Require H convergence for SCF               =   T
redata: Hamiltonian tolerance for SCF               =     0.001000 eV
redata: Require (free) Energy convergence for SCF   =   F
redata: (free) Energy tolerance for SCF             =     0.000100 eV
redata: Using DFT-D3 dispersion                     =   F
redata: Using Saved Data (generic)                  =   F
redata: Use continuation files for DM               =   T
redata: Neglect nonoverlap interactions             =   F
redata: Method of Calculation                       = Diagonalization
redata: Electronic Temperature                      =    50.0000 K
redata: Fix the spin of the system                  =   F
redata: Max. number of TDED Iter                    =        1
redata: Number of TDED substeps                     =        3
redata: Dynamics option                             = Single-point calculation
mix.SCF: Pulay mixing                            = Pulay
mix.SCF:    Variant                              = stable
mix.SCF:    History steps                        = 10
mix.SCF:    Linear mixing weight                 =     0.025000
mix.SCF:    Mixing weight                        =     0.025000
mix.SCF:    SVD condition                        = 0.1000E-07
redata: ***********************************************************************

%block SCF.Mixers
  Pulay
%endblock SCF.Mixers

%block SCF.Mixer.Pulay
  # Mixing method
  method pulay
  variant stable

  # Mixing options
  weight 0.0250
  weight.linear 0.0250
  history 10
%endblock SCF.Mixer.Pulay

DM_history_depth set to one: no extrapolation allowed by default for geometry relaxation
Size of DM history Fstack: 1
Total number of electrons:     8.000000
Total ionic charge:     8.000000

* ProcessorY, Blocksize:    6   1

* Orbital distribution balance (max,min):     2     1

k-point displ. along   1 input, could be:     0.00    0.50
k-point displ. along   2 input, could be:     0.00    0.50
k-point displ. along   3 input, could be:     0.00    0.50
 Kpoints in:         1008 . Kpoints trimmed:          948

siesta: k-grid: Number of k-points = 948
siesta: k-points from Monkhorst-Pack grid
siesta: k-cutoff (effective) =    21.600 Ang
siesta: k-point supercell and displacements
siesta: k-grid:    12     0     0      0.000
siesta: k-grid:     0    12     0      0.000
siesta: k-grid:     0     0    12      0.000

diag: Algorithm                                     = D&C
diag: Parallel over k                               =   F
diag: Use parallel 2D distribution                  =   T
diag: Parallel block-size                           = 1
diag: Parallel distribution                         =     4 x     6
diag: Used triangular part                          = Lower
diag: Absolute tolerance                            =  0.100E-15
diag: Orthogonalization factor                      =  0.100E-05

superc: Internal auxiliary supercell:     5 x     5 x     5  =     125
superc: Number of atoms, orbitals, and projectors:    250   3250   2000

ts: **************************************************************
ts: Save H and S matrices                           =    F
ts: Save DM and EDM matrices                        =    F
ts: Only save the overlap matrix S                  =    F
ts: **************************************************************

************************ Begin: TS CHECKS AND WARNINGS ************************
************************ End: TS CHECKS AND WARNINGS **************************

                        Single-point calculation

superc: Internal auxiliary supercell:     5 x     5 x     5  =     125
superc: Number of atoms, orbitals, and projectors:    250   3250   2000

outcell: Unit cell vectors (Ang):
        3.599990    0.000000    0.000000
        0.000000    3.599990    0.000000
        0.000000    0.000000    3.599990

outcell: Cell vector modules (Ang)   :    3.599990    3.599990    3.599990
outcell: Cell angles (23,13,12) (deg):     90.0000     90.0000     90.0000
outcell: Cell volume (Ang**3)        :     46.6556
<dSpData1D:S at geom step 0
  <sparsity:sparsity for geom step 0
    nrows_g=26 nrows=2 sparsity=1.5503 nnzs=1048, refcount: 7>
  <dData1D:(new from dSpData1D) n=1048, refcount: 1>
refcount: 1>
new_DM -- step:     1
Initializing Density Matrix...

Attempting to read DM from file... Failed...
DM filled with atomic data:
<dSpData2D:DM initialized from atoms
  <sparsity:sparsity for geom step 0
    nrows_g=26 nrows=2 sparsity=1.5503 nnzs=1048, refcount: 8>
  <dData2D:DM n=1048 m=1, refcount: 1>
refcount: 1>
No. of atoms with KB's overlaping orbs in proc 0. Max # of overlaps:      17     103

InitMesh: MESH = 48 x 48 x 48 = 110592
InitMesh: Mesh cutoff (required, used) =   400.000   491.340 Ry
New grid distribution [1]: sub = 2
New grid distribution [2]: sub = 2
New grid distribution [3]: sub = 2
Setting up quadratic distribution...

stepf: Fermi-Dirac step function

siesta: Program's energy decomposition (eV):
siesta: Ebs     =       -59.937578
siesta: Eions   =       610.591650
siesta: Ena     =       158.176601
siesta: Ekin    =       241.180038
siesta: Enl     =       -29.147059
siesta: Eso     =         0.000000
siesta: Edftu   =         0.000000
siesta: DEna    =        -7.481414
siesta: DUscf   =         5.944025
siesta: DUext   =         0.000000
siesta: Ex      =      -100.520244
siesta: Ec      =        -9.392254
siesta: Exc     =      -109.912498
siesta: EbV     =         0.000000
siesta: eta*DQ  =         0.000000
siesta: Emadel  =         0.000000
siesta: Emeta   =         0.000000
siesta: Emolmec =         0.000000
siesta: Ekinion =         0.000000
siesta: Eharris =      -347.240448
siesta: Etot    =      -351.831958
siesta: FreeEng =      -351.831958

        iscf     Eharris(eV)        E_KS(eV)     FreeEng(eV)     dDmax    Ef(eV) dHmax(eV)
   scf:    1     -347.240448     -351.831958     -351.831958  1.479291 -6.977016  8.188093
 IterSCF                          1       3.956  100.00
  compute_dm                      1       3.929   99.30
  setup_H                         1       0.027    0.68
  MIXER                           1       0.000    0.00
   scf:    2     -353.201020     -352.532513     -352.532537  0.017379 -6.875068  7.194238
   scf:    3     -354.425847     -355.275738     -355.275856  0.311743 -6.049967  2.276002
   scf:    4     -351.543847     -354.274555     -354.274632  0.230946 -6.557286  4.199526
   scf:    5     -355.722753     -355.094366     -355.094498  0.083499 -6.531702  2.396187
   scf:    6     -355.593526     -355.403942     -355.404027  0.060386 -6.430609  0.743854
   scf:    7     -355.416403     -355.410254     -355.410399  0.007606 -6.454792  0.744399
   scf:    8     -355.217166     -355.399625     -355.399716  0.075410 -6.494596  0.932426
   scf:    9     -355.400080     -355.399853     -355.399947  0.000330 -6.497477  0.924247
   scf:   10     -355.466395     -355.456765     -355.456892  0.036162 -6.480920  0.016747
   scf:   11     -355.456757     -355.456768     -355.456886  0.000879 -6.480546  0.012081
   scf:   12     -355.456742     -355.456763     -355.456893  0.001374 -6.489002  0.005869
   scf:   13     -355.456777     -355.456772     -355.456898  0.000645 -6.486834  0.002860
   scf:   14     -355.456772     -355.456772     -355.456897  0.000075 -6.486607  0.003656
   scf:   15     -355.456771     -355.456772     -355.456898  0.000160 -6.486754  0.000780
mix: Pulay -- inversion failed, > SVD [rank/size] 5 / 9
   scf:   16     -355.456772     -355.456772     -355.456898  0.000034 -6.486723  0.000012
   scf:   17     -355.456772     -355.456772     -355.456898  0.000009 -6.486703  0.000225

SCF Convergence by DM+H criterion
max |DM_out - DM_in|         :     0.0000094866
max |H_out - H_in|      (eV) :     0.0002248060
SCF cycle converged after 17 iterations

Using DM_out to compute the final energy and forces
No. of atoms with KB's overlaping orbs in proc 0. Max # of overlaps:      17     103

siesta: E_KS(eV) =             -355.4568

siesta: E_KS - E_eggbox =      -355.4568

siesta: Atomic forces (eV/Ang):
   Tot   -0.000000    0.000000   -0.000314
   Max    3.427070
   Res    1.978529    sqrt( Sum f_i^2 / 3N )
   Max    3.427070    constrained

Stress tensor Voigt[x,y,z,yz,xz,xy] (kbar):       13.58       13.58      781.22       -0.00        0.00        0.00
(Free)E + p*V (eV/cell)     -363.3037
Target enthalpy (eV/cell)     -355.4569

siesta: Program's energy decomposition (eV):
siesta: Ebs     =       -92.419386
siesta: Eions   =       610.591650
siesta: Ena     =       158.176601
siesta: Ekin    =       214.004860
siesta: Enl     =       -18.120958
siesta: Eso     =         0.000000
siesta: Edftu   =         0.000000
siesta: DEna    =         4.334986
siesta: DUscf   =         0.481408
siesta: DUext   =         0.000000
siesta: Ex      =       -94.464981
siesta: Ec      =        -9.277038
siesta: Exc     =      -103.742019
siesta: EbV     =         0.000000
siesta: eta*DQ  =         0.000000
siesta: Emadel  =         0.000000
siesta: Emeta   =         0.000000
siesta: Emolmec =         0.000000
siesta: Ekinion =         0.000000
siesta: Eharris =      -355.456772
siesta: Etot    =      -355.456772
siesta: FreeEng =      -355.456898

siesta: Final energy (eV):
siesta:  Band Struct. =     -92.419386
siesta:       Kinetic =     214.004860
siesta:       Hartree =     118.312393
siesta:         Edftu =       0.000000
siesta:       Eso     =       0.000000
siesta:    Ext. field =       0.000000
siesta:         Exch. =     -94.464981
siesta:         Corr. =      -9.277038
siesta:     Bulk bias =       0.000000
siesta:   Exch.-corr. =    -103.742019
siesta:  Ion-electron =    -427.002823
siesta:       Ion-ion =    -157.029183
siesta:       Ekinion =       0.000000
siesta: D3 dispersion =       0.000000
siesta:         Total =    -355.456772
siesta:         Fermi =      -6.486703

siesta: Atomic forces (eV/Ang):
siesta:      1    0.000000    0.000000   -3.427070
siesta:      2   -0.000000    0.000000    3.426756
siesta: ----------------------------------------
siesta:    Tot   -0.000000    0.000000   -0.000314

siesta: Stress tensor (static) (eV/Ang**3):
siesta:     0.008479    0.000000   -0.000000
siesta:     0.000000    0.008479   -0.000000
siesta:     0.000000   -0.000000    0.487602

siesta: Cell volume =         46.655611 Ang**3

siesta: Pressure (static):
siesta:                Solid            Molecule  Units
siesta:          -0.00183178         -0.00140913  Ry/Bohr**3
siesta:          -0.16818659         -0.12938064  eV/Ang**3
siesta:        -269.46461873       -207.29063572  kBar
(Free)E+ p_basis*V_orbitals  =        -354.310895
(Free)Eharris+ p_basis*V_orbitals  =        -354.310895

cite: Please see "aiida.bib" for an exhaustive BiBTeX file.
cite: Please clearly indicate Siesta version in published work: NO_VERSION_LABEL_AVAILABLE
cite: This calculation has made use of the following articles
cite: which are encouraged to be cited in a published work.
        Primary SIESTA paper
          DOI: www.doi.org/10.1088/0953-8984/14/11/302

 global_section                   1      65.408  100.00
  siesta                          1      65.408  100.00
   Setup                          1       0.153    0.23
    bands                         1       0.000    0.00
    KSV_init                      1       0.000    0.00
   IterGeom                       1      65.215   99.70
    geom_init                     1       0.879    1.34
     state_init                   1       0.042    0.06
      hsparse                     1       0.000    0.00
      overlap                     1       0.020    0.03
     Setup_H0                     1       0.797    1.22
      naefs                       1       0.000    0.00
      MolMec                      1       0.000    0.00
      kinefsm                     1       0.016    0.02
      nlefsm                      1       0.184    0.28
      DHSCF_Init                  1       0.597    0.91
       DHSCF1                     1       0.043    0.07
        INITMESH                  1       0.000    0.00
       DHSCF2                     1       0.554    0.85
        REMESH                    1       0.305    0.47
         INITMESH                 2       0.255    0.39
          SPLOAD                  2       0.255    0.39
        REORD                     2       0.000    0.00
        PHION                     1       0.092    0.14
        COMM_BSC                  1       0.000    0.00
        POISON                    1       0.001    0.00
         fft                      2       0.001    0.00
     setup_H                      1       0.040    0.06
      DHSCF                       1       0.040    0.06
       DHSCF3                     1       0.040    0.06
        rhoofd                    1       0.012    0.02
        COMM_BSC                  2       0.007    0.01
        POISON                    1       0.001    0.00
         fft                      2       0.001    0.00
        XC                        1       0.008    0.01
         COMM_BSC                 2       0.000    0.00
         GXC-CellXC               1       0.008    0.01
          gridxc@cellXC           1       0.008    0.01
        vmat                      1       0.012    0.02
    IterSCF                      17      64.239   98.21
     compute_dm                  17      63.803   97.55
      diagon                     17      63.803   97.55
       c-eigval               16116      31.348   47.93
        c-buildHS             16116       0.245    0.37
        cdiag                 16116      31.093   47.54
         cdiag1               16116       2.936    4.49
         cdiag2               16116       6.524    9.97
         cdiag3               16116      20.849   31.87
       c-eigvec               16116      31.950   48.85
        cdiag                 16116      31.704   48.47
         cdiag1               16116       2.883    4.41
         cdiag2               16116       6.431    9.83
         cdiag3               16116      20.660   31.59
         cdiag4               16116       0.972    1.49
       c-buildD               16116       0.433    0.66
     setup_H                     17       0.427    0.65
      DHSCF                      17       0.426    0.65
       DHSCF3                    17       0.426    0.65
        rhoofd                   17       0.174    0.27
        COMM_BSC                 34       0.016    0.02
        POISON                   17       0.014    0.02
         fft                     34       0.013    0.02
        XC                       17       0.097    0.15
         COMM_BSC                34       0.003    0.00
         GXC-CellXC              17       0.095    0.14
          gridxc@cellXC          17       0.094    0.14
        vmat                     17       0.125    0.19
     MIXER                       16       0.001    0.00
    PostSCF                       1       0.097    0.15
     naefs                        1       0.000    0.00
     kinefsm                      1       0.000    0.00
     nlefsm                       1       0.004    0.01
     DHSCF                        1       0.078    0.12
      DHSCF3                      1       0.023    0.04
       rhoofd                     1       0.010    0.01
       COMM_BSC                   2       0.000    0.00
       POISON                     1       0.001    0.00
        fft                       2       0.001    0.00
       XC                         1       0.006    0.01
        COMM_BSC                  2       0.000    0.00
        GXC-CellXC                1       0.005    0.01
         gridxc@cellXC            1       0.005    0.01
       vmat                       1       0.007    0.01
      DHSCF4                      1       0.055    0.08
       REORD                     10       0.000    0.00
       COMM_BSC                   2       0.005    0.01
       dfscf                      1       0.030    0.05
     overfsm                      1       0.000    0.00
     MolMec                       1       0.000    0.00
     writeHSX                     1       0.000    0.00
    state_analysis                1       0.000    0.00
    siesta_move                   1       0.000    0.00
   Analysis                       1       0.038    0.06
    optical                       1       0.000    0.00

>> End of run:  17-APR-2024   1:39:35
Job completed