Runtime information:
* Directory : /home/ICN2/jgarridoa/aiida_run/ab/15/125d-f09e-4ebb-b37b-5d54d0cad8d3
>> Start of run:  17-APR-2024  20:41:57

reinit: Reading from standard input
reinit: Dumping input in INPUT_TMP.52320
************************** Dump of input data file ****************************
atomiccoordinatesformat Ang
cdfsave True
dminitspinaf False
dmmixingweight 0.025
dmmixscf1 True
dmnumberpulay 10
dmtolerance 1e-05
electronictemperature 50.000 K
geometrymustconverge T
latticeconstant 1.0 Ang
maxscfiterations 1000
meshcutoff 400 Ry
noncollinearspin False
numberofatoms 8
numberofspecies 1
savehs True
solutionmethod diagon
spinorbit False
spinpolarized False
systemlabel aiida
systemname aiida
usetreetimer T
writedmhsnetcdf True
writeorbmom True
xcauthors PBEsol
xcfunctional GGA
xmlwrite T
#
# -- Basis Set Info follows
#
PAO-BasisSize DZP
PAO-SplitNorm 0.15
PAO-EnergyShift 0.005 Ry
#
# -- Structural Info follows
#
%block chemicalspecieslabel
    1     6      C
%endblock chemicalspecieslabel
%block lattice-vectors
      3.6148500000       0.0000000000       0.0000000000
      0.0000000000       3.4545600000       0.0000000000
      0.0000000000       0.0000000000       3.7156900000
%endblock lattice-vectors
%block atomiccoordinatesandatomicspecies
      3.5771832630       3.4169052960       3.6780500603    1      C      1
      3.5853166755       1.7865602496       1.7772516839    1      C      2
      1.7698305600       3.4169743872       1.7698203039    1      C      3
      1.7698305600       1.7698056336       3.6781243741    1      C      4
      0.8660457630       0.8660581920       0.8660530252    1      C      5
      0.8801075295       2.6860931280       2.6802386677    1      C      6
      2.6735069115       0.8661272832       2.6735132688    1      C      7
      2.6735069115       2.6735185296       0.8661273390    1      C      8
%endblock atomiccoordinatesandatomicspecies
#
# -- K-points Info follows
#
%block kgrid_monkhorst_pack
     6      0      0       0.0000000000
     0      6      0       0.0000000000
     0      0      6       0.0000000000
%endblock kgrid_monkhorst_pack
#
#
maxwalltime 7200000
************************** End of input data file *****************************

reinit: -----------------------------------------------------------------------
reinit: System Name: aiida
reinit: -----------------------------------------------------------------------
reinit: System Label: aiida
reinit: -----------------------------------------------------------------------

initatom: Reading input for the pseudopotentials and atomic orbitals ----------
Species number:   1 Atomic number:    6 Label: C

---- Processing specs for species: C
Ground state valence configuration:   2s02  2p02
Reading pseudopotential information in PSML from:
  C.psml
PSML file version: 1.1
GGA--PBEsol XC_GGA_X_PBE_SOL--XC_GGA_C_PBE_SOL ps
PSML uuid: 51a02af0-1d5f-11e8-49c3-12b9ebd99919

---- Pseudopotential check for C

Pseudized shells:
2s( 2.00) rc: 1.20
2p( 2.00) rc: 1.26
Valence configuration for ps generation: 2s:2p: Total charge:   4.000000
For C, standard SIESTA heuristics set lmxkb to 3
 (one more than the basis l, including polarization orbitals).
Use PS.lmax or PS.KBprojectors blocks to override.
C pseudopotential only contains V_ls up to l=1 -- lmxkb reset.

<basis_specs>
C                    Z=   6    Mass=  12.011        Charge= 0.17977+309
Lmxo=2 Lmxkb= 1    BasisType=split      Semic=F
L=0  Nsemic=0  Cnfigmx=2
          i=1  nzeta=2  polorb=0  (2s)
            splnorm:   0.15000
               vcte:    40.000
               rinn:  -0.90000
               qcoe:    0.0000
               qyuk:    0.0000
               qwid:   0.10000E-01
                rcs:    0.0000      0.0000
            lambdas:    1.0000      1.0000
L=1  Nsemic=0  Cnfigmx=2
          i=1  nzeta=2  polorb=1  (2p)  (to be polarized perturbatively)
            splnorm:   0.15000
               vcte:    40.000
               rinn:  -0.90000
               qcoe:    0.0000
               qyuk:    0.0000
               qwid:   0.10000E-01
                rcs:    0.0000      0.0000
            lambdas:    1.0000      1.0000
L=2  Nsemic=0  Cnfigmx=3
          i=1  nzeta=0  polorb=0  (3d)  (perturbative polarization orbital) (from 2p)
L=0  Nkbl=1  erefs: 0.17977+309
L=1  Nkbl=1  erefs: 0.17977+309
</basis_specs>

Using PAO.SplitTailNorm
atom: Called for C                     (Z =   6)
NOTE: C pseudopotential has channels up to l= 1
NOTE: PAOs with higher l will be generated with V_local
Maximum radius (at nrval) set to   50.00000 8518

read_vps: Pseudopotential generation method:
read_vps: ONCVPSP-3.Hamann's oncvpsp
Valence charge in pseudo generation:    4.00000

read_vps: Pseudopotential includes a core correction:
read_vps: Pseudo-core for xc-correction

xc_check: Exchange-correlation functional:
xc_check: GGA PBEsol
Got Vlocal (oncv-fit) from psml data
Choosing vlocal chloc cutoff:  4.114026
qtot up to nchloc:    4.00001066
atom: Maximum radius for chlocal:    4.11403
atom: Maximum radius for r*vlocal+2*Zval:    4.11403
Reading KB projs from C psml data
Using scalar-relativistic projectors in PSML file

PSML: Kleinman-Bylander projectors:
   l= 0   rc=  1.219773   Ekb= 12.937878
   l= 0   rc=  1.219773   Ekb=  0.780062
   l= 1   rc=  1.278952   Ekb= -8.359390
   l= 1   rc=  1.278952   Ekb= -1.756905

PSML: Total number of  Kleinman-Bylander projectors:   8
atom: -------------------------------------------------------------------------

atom: SANKEY-TYPE ORBITALS:
atom: Selected multiple-zeta basis: split

SPLIT: Orbitals with angular momentum L= 0

SPLIT: Basis orbitals for state 2s

SPLIT: PAO cut-off radius determined from an
SPLIT: energy shift=  0.005000 Ry
Split based on tail norm

   izeta = 1
                 lambda =    1.000000
                     rc =    4.858714
                 energy =   -0.997375
                kinetic =    0.928233
    potential(screened) =   -1.925608
       potential(ionic) =   -5.470603

   izeta = 2
                 rmatch =    3.157143
              splitnorm =    0.150000
                 energy =   -0.747328
                kinetic =    1.689643
    potential(screened) =   -2.436971
       potential(ionic) =   -6.275825

SPLIT: Orbitals with angular momentum L= 1

SPLIT: Basis orbitals for state 2p

SPLIT: PAO cut-off radius determined from an
SPLIT: energy shift=  0.005000 Ry
Split based on tail norm

   izeta = 1
                 lambda =    1.000000
                     rc =    5.984425
                 energy =   -0.378962
                kinetic =    2.440834
    potential(screened) =   -2.819796
       potential(ionic) =   -6.224005

   izeta = 2
                 rmatch =    3.889428
              splitnorm =    0.150000
                 energy =   -0.273331
                kinetic =    3.469746
    potential(screened) =   -3.743077
       potential(ionic) =   -7.475055
*Note: V_local used for l= 2

** Using vlocal for PAOs with L= 2

POLgen: Perturbative polarization orbital with L=  2

POLgen: Polarization orbital for state 2p
*Note: V_local used for lpol= 2

** Using vlocal for PAOs with L= 2
Split based on tail norm

   izeta = 1
                     rc =    5.984425
                 energy =    1.076317
                kinetic =    2.134413
    potential(screened) =   -1.058097
       potential(ionic) =   -3.835567
atom: Total number of Sankey-type orbitals: 13

atm_pop: Valence configuration (for local Pseudopot. screening):
 2s( 2.00)
 2p( 2.00)
 3d( 0.00)
Vna: chval, zval:    4.00000   4.00000

Vna:  Cut-off radius for the neutral-atom potential:   5.984425
comcore: Pseudo-core radius Rcore=  1.671741

atom: _________________________________________________________________________

prinput: Basis input

PAO.BasisType split

%block ChemicalSpeciesLabel
    1    6 C                       # Species index, atomic number, species label
%endblock ChemicalSpeciesLabel

%block PAO.Basis                 # Define Basis set
# WARNING: This information might be incomplete!
C                     2                    # Species label, number of l-shells
 n=2   0   2                         # n, l, Nzeta
   4.859      3.157
   1.000      1.000
 n=2   1   2 P   1                   # n, l, Nzeta, Polarization, NzetaPol
   5.984      3.889
   1.000      1.000
%endblock PAO.Basis

prinput: ----------------------------------------------------------------------

coor:   Atomic-coordinates input format  =     Cartesian coordinates
coor:                                          (in Angstroms)

siesta: Atomic coordinates (Bohr) and species
siesta:      6.75990   6.45702   6.95051  1        1
siesta:      6.77527   3.37611   3.35852  1        2
siesta:      3.34450   6.45715   3.34448  1        3
siesta:      3.34450   3.34445   6.95065  1        4
siesta:      1.63659   1.63661   1.63660  1        5
siesta:      1.66316   5.07598   5.06492  1        6
siesta:      5.05220   1.63674   5.05221  1        7
siesta:      5.05220   5.05222   1.63674  1        8

siesta: System type = bulk

initatomlists: Number of atoms, orbitals, and projectors:      8   104    64

siesta: ******************** Simulation parameters ****************************
siesta:
siesta: The following are some of the parameters of the simulation.
siesta: A complete list of the parameters used, including default values,
siesta: can be found in file out.fdf
siesta:
redata: Spin configuration                          = none
redata: Number of spin components                   = 1
redata: Time-Reversal Symmetry                      = T
redata: Spin spiral                                 = F
redata: Long output                                 =   F
redata: Number of Atomic Species                    =        1
redata: Charge density info will appear in .RHO file
redata: Write Mulliken Pop.                         = NO
redata: Matel table size (NRTAB)                    =     1024
redata: Mesh Cutoff                                 =   400.0000 Ry
redata: Net charge of the system                    =     0.0000 |e|
redata: Min. number of SCF Iter                     =        0
redata: Max. number of SCF Iter                     =     1000
redata: SCF convergence failure will abort job
redata: SCF mix quantity                            = Hamiltonian
redata: Mix DM or H after convergence               =   F
redata: Recompute H after scf cycle                 =   F
redata: Mix DM in first SCF step                    =   T
redata: Write Pulay info on disk                    =   F
redata: New DM Occupancy tolerance                  = 0.000000000001
redata: No kicks to SCF
redata: DM Mixing Weight for Kicks                  =     0.5000
redata: Require Harris convergence for SCF          =   F
redata: Harris energy tolerance for SCF             =     0.000100 eV
redata: Require DM convergence for SCF              =   T
redata: DM tolerance for SCF                        =     0.000010
redata: Require EDM convergence for SCF             =   F
redata: EDM tolerance for SCF                       =     0.001000 eV
redata: Require H convergence for SCF               =   T
redata: Hamiltonian tolerance for SCF               =     0.001000 eV
redata: Require (free) Energy convergence for SCF   =   F
redata: (free) Energy tolerance for SCF             =     0.000100 eV
redata: Using DFT-D3 dispersion                     =   F
redata: Using Saved Data (generic)                  =   F
redata: Use continuation files for DM               =   T
redata: Neglect nonoverlap interactions             =   F
redata: Method of Calculation                       = Diagonalization
redata: Electronic Temperature                      =    50.0000 K
redata: Fix the spin of the system                  =   F
redata: Max. number of TDED Iter                    =        1
redata: Number of TDED substeps                     =        3
redata: Dynamics option                             = Single-point calculation
mix.SCF: Pulay mixing                            = Pulay
mix.SCF:    Variant                              = stable
mix.SCF:    History steps                        = 10
mix.SCF:    Linear mixing weight                 =     0.025000
mix.SCF:    Mixing weight                        =     0.025000
mix.SCF:    SVD condition                        = 0.1000E-07
redata: ***********************************************************************

%block SCF.Mixers
  Pulay
%endblock SCF.Mixers

%block SCF.Mixer.Pulay
  # Mixing method
  method pulay
  variant stable

  # Mixing options
  weight 0.0250
  weight.linear 0.0250
  history 10
%endblock SCF.Mixer.Pulay

DM_history_depth set to one: no extrapolation allowed by default for geometry relaxation
Size of DM history Fstack: 1
Total number of electrons:    32.000000
Total ionic charge:    32.000000

* ProcessorY, Blocksize:    4   4

* Orbital distribution balance (max,min):     8     4

k-point displ. along   1 input, could be:     0.00    0.50
k-point displ. along   2 input, could be:     0.00    0.50
k-point displ. along   3 input, could be:     0.00    0.50
 Kpoints in:          144 . Kpoints trimmed:          132

siesta: k-grid: Number of k-points = 132
siesta: k-points from Monkhorst-Pack grid
siesta: k-cutoff (effective) =    10.364 Ang
siesta: k-point supercell and displacements
siesta: k-grid:     6     0     0      0.000
siesta: k-grid:     0     6     0      0.000
siesta: k-grid:     0     0     6      0.000

diag: Algorithm                                     = D&C
diag: Parallel over k                               =   F
diag: Use parallel 2D distribution                  =   T
diag: Parallel block-size                           = 4
diag: Parallel distribution                         =     4 x     6
diag: Used triangular part                          = Lower
diag: Absolute tolerance                            =  0.100E-15
diag: Orthogonalization factor                      =  0.100E-05

superc: Internal auxiliary supercell:     5 x     5 x     5  =     125
superc: Number of atoms, orbitals, and projectors:   1000  13000   8000

ts: **************************************************************
ts: Save H and S matrices                           =    F
ts: Save DM and EDM matrices                        =    F
ts: Only save the overlap matrix S                  =    F
ts: **************************************************************

************************ Begin: TS CHECKS AND WARNINGS ************************
************************ End: TS CHECKS AND WARNINGS **************************

                        Single-point calculation

superc: Internal auxiliary supercell:     5 x     5 x     5  =     125
superc: Number of atoms, orbitals, and projectors:   1000  13000   8000

outcell: Unit cell vectors (Ang):
        3.614850    0.000000    0.000000
        0.000000    3.454560    0.000000
        0.000000    0.000000    3.715690

outcell: Cell vector modules (Ang)   :    3.614850    3.454560    3.715690
outcell: Cell angles (23,13,12) (deg):     90.0000     90.0000     90.0000
outcell: Cell volume (Ang**3)        :     46.4005
<dSpData1D:S at geom step 0
  <sparsity:sparsity for geom step 0
    nrows_g=104 nrows=8 sparsity=1.3907 nnzs=15042, refcount: 7>
  <dData1D:(new from dSpData1D) n=15042, refcount: 1>
refcount: 1>
new_DM -- step:     1
Initializing Density Matrix...

Attempting to read DM from file... Failed...
DM filled with atomic data:
<dSpData2D:DM initialized from atoms
  <sparsity:sparsity for geom step 0
    nrows_g=104 nrows=8 sparsity=1.3907 nnzs=15042, refcount: 8>
  <dData2D:DM n=15042 m=1, refcount: 1>
refcount: 1>
No. of atoms with KB's overlaping orbs in proc 0. Max # of overlaps:      60     397

InitMesh: MESH = 48 x 48 x 48 = 110592
InitMesh: Mesh cutoff (required, used) =   400.000   461.217 Ry
New grid distribution [1]: sub = 2
New grid distribution [2]: sub = 2
New grid distribution [3]: sub = 2
Setting up quadratic distribution...

stepf: Fermi-Dirac step function

siesta: Program's energy decomposition (eV):
siesta: Ebs     =      -471.517439
siesta: Eions   =      2258.737412
siesta: Ena     =       603.785523
siesta: Ekin    =       917.317414
siesta: Enl     =       -54.332622
siesta: Eso     =         0.000000
siesta: Edftu   =         0.000000
siesta: DEna    =       -47.054960
siesta: DUscf   =         3.738958
siesta: DUext   =         0.000000
siesta: Ex      =      -422.729931
siesta: Ec      =       -46.235835
siesta: Exc     =      -468.965766
siesta: EbV     =         0.000000
siesta: eta*DQ  =         0.000000
siesta: Emadel  =         0.000000
siesta: Emeta   =         0.000000
siesta: Emolmec =         0.000000
siesta: Ekinion =         0.000000
siesta: Eharris =     -1275.611355
siesta: Etot    =     -1304.248864
siesta: FreeEng =     -1304.248864

        iscf     Eharris(eV)        E_KS(eV)     FreeEng(eV)     dDmax    Ef(eV) dHmax(eV)
   scf:    1    -1275.611355    -1304.248864    -1304.248864  1.735250 -5.573749  1.625945
 IterSCF                          1       1.559  100.00
  compute_dm                      1       1.381   88.61
  setup_H                         1       0.174   11.17
  MIXER                           1       0.000    0.00
   scf:    2    -1304.292175    -1304.270569    -1304.270569  0.005722 -5.550564  1.562321
   scf:    3    -1304.810780    -1304.579163    -1304.579163  0.131767 -4.911445  0.409539
   scf:    4    -1304.604980    -1304.595270    -1304.595270  0.015599 -4.866643  0.063563
   scf:    5    -1304.596126    -1304.595735    -1304.595735  0.003923 -4.852366  0.024397
   scf:    6    -1304.595952    -1304.595855    -1304.595855  0.000882 -4.851274  0.009393
   scf:    7    -1304.595860    -1304.595858    -1304.595858  0.000050 -4.851076  0.008462
   scf:    8    -1304.595899    -1304.595880    -1304.595880  0.000886 -4.851832  0.002688
   scf:    9    -1304.595886    -1304.595883    -1304.595883  0.000534 -4.852081  0.000228
mix: Pulay -- inversion failed, > SVD [rank/size] 5 / 8
   scf:   10    -1304.595883    -1304.595883    -1304.595883  0.000029 -4.852105  0.000091
mix: Pulay -- inversion failed, > SVD [rank/size] 5 / 9
   scf:   11    -1304.595883    -1304.595883    -1304.595883  0.000000 -4.852105  0.000086

SCF Convergence by DM+H criterion
max |DM_out - DM_in|         :     0.0000002589
max |H_out - H_in|      (eV) :     0.0000862283
SCF cycle converged after 11 iterations

Using DM_out to compute the final energy and forces
No. of atoms with KB's overlaping orbs in proc 0. Max # of overlaps:      60     397

siesta: E_KS(eV) =            -1304.5959

siesta: E_KS - E_eggbox =     -1304.5959

siesta: Atomic forces (eV/Ang):
   Tot   -0.000496    0.001113    0.000099
   Max    4.744096
   Res    2.152996    sqrt( Sum f_i^2 / 3N )
   Max    4.744096    constrained

Stress tensor Voigt[x,y,z,yz,xz,xy] (kbar):       41.57     -279.67      317.60        8.83       49.98       -9.61
(Free)E + p*V (eV/cell)    -1305.3634
Target enthalpy (eV/cell)    -1304.5959

siesta: Program's energy decomposition (eV):
siesta: Ebs     =      -478.138985
siesta: Eions   =      2258.737412
siesta: Ena     =       603.785523
siesta: Ekin    =       900.065651
siesta: Enl     =       -50.913503
siesta: Eso     =         0.000000
siesta: Edftu   =         0.000000
siesta: DEna    =       -35.193087
siesta: DUscf   =         2.658095
siesta: DUext   =         0.000000
siesta: Ex      =      -419.817803
siesta: Ec      =       -46.443348
siesta: Exc     =      -466.261151
siesta: EbV     =         0.000000
siesta: eta*DQ  =         0.000000
siesta: Emadel  =         0.000000
siesta: Emeta   =         0.000000
siesta: Emolmec =         0.000000
siesta: Ekinion =         0.000000
siesta: Eharris =     -1304.595883
siesta: Etot    =     -1304.595883
siesta: FreeEng =     -1304.595883

siesta: Final energy (eV):
siesta:  Band Struct. =    -478.138985
siesta:       Kinetic =     900.065651
siesta:       Hartree =     103.911246
siesta:         Edftu =       0.000000
siesta:       Eso     =       0.000000
siesta:    Ext. field =       0.000000
siesta:         Exch. =    -419.817803
siesta:         Corr. =     -46.443348
siesta:     Bulk bias =       0.000000
siesta:   Exch.-corr. =    -466.261151
siesta:  Ion-electron =   -1071.327041
siesta:       Ion-ion =    -770.984588
siesta:       Ekinion =       0.000000
siesta: D3 dispersion =       0.000000
siesta:         Total =   -1304.595883
siesta:         Fermi =      -4.852105

siesta: Atomic forces (eV/Ang):
siesta:      1    0.457564    4.331397   -2.425015
siesta:      2   -0.154154   -1.550677    0.447955
siesta:      3    0.302565    4.744096    0.454742
siesta:      4    0.174776   -1.021038   -2.104665
siesta:      5   -0.082889    1.221064   -0.487599
siesta:      6   -0.949602   -4.553517    2.490700
siesta:      7    0.157007    1.234634    2.154966
siesta:      8    0.094238   -4.404845   -0.530985
siesta: ----------------------------------------
siesta:    Tot   -0.000496    0.001113    0.000099

siesta: Stress tensor (static) (eV/Ang**3):
siesta:     0.025945   -0.006001    0.031194
siesta:    -0.006001   -0.174555    0.005509
siesta:     0.031194    0.005510    0.198232

siesta: Cell volume =         46.400482 Ang**3

siesta: Pressure (static):
siesta:                Solid            Molecule  Units
siesta:          -0.00018015         -0.00039446  Ry/Bohr**3
siesta:          -0.01654086         -0.03621738  eV/Ang**3
siesta:         -26.50138684        -58.02664367  kBar
(Free)E+ p_basis*V_orbitals  =       -1300.668059
(Free)Eharris+ p_basis*V_orbitals  =       -1300.668059

cite: Please see "aiida.bib" for an exhaustive BiBTeX file.
cite: Please clearly indicate Siesta version in published work: NO_VERSION_LABEL_AVAILABLE
cite: This calculation has made use of the following articles
cite: which are encouraged to be cited in a published work.
        Primary SIESTA paper
          DOI: www.doi.org/10.1088/0953-8984/14/11/302

 global_section                   1      19.054  100.00
  siesta                          1      19.054  100.00
   Setup                          1       0.088    0.46
    bands                         1       0.000    0.00
    KSV_init                      1       0.000    0.00
   IterGeom                       1      18.946   99.43
    geom_init                     1       0.917    4.81
     state_init                   1       0.088    0.46
      hsparse                     1       0.004    0.02
      overlap                     1       0.028    0.15
     Setup_H0                     1       0.555    2.91
      naefs                       1       0.000    0.00
      MolMec                      1       0.000    0.00
      kinefsm                     1       0.026    0.14
      nlefsm                      1       0.079    0.41
      DHSCF_Init                  1       0.450    2.36
       DHSCF1                     1       0.031    0.16
        INITMESH                  1       0.000    0.00
       DHSCF2                     1       0.419    2.20
        REMESH                    1       0.129    0.68
         INITMESH                 2       0.069    0.36
          SPLOAD                  2       0.069    0.36
        REORD                     2       0.000    0.00
        PHION                     1       0.165    0.86
        COMM_BSC                  1       0.000    0.00
        POISON                    1       0.001    0.01
         fft                      2       0.001    0.01
     setup_H                      1       0.275    1.44
      DHSCF                       1       0.275    1.44
       DHSCF3                     1       0.275    1.44
        rhoofd                    1       0.099    0.52
        COMM_BSC                  2       0.058    0.31
        POISON                    1       0.013    0.07
         fft                      2       0.013    0.07
        XC                        1       0.008    0.04
         COMM_BSC                 2       0.000    0.00
         GXC-CellXC               1       0.008    0.04
          gridxc@cellXC           1       0.008    0.04
        vmat                      1       0.096    0.51
    IterSCF                      11      17.379   91.21
     compute_dm                  11      15.339   80.50
      diagon                     11      15.337   80.49
       c-eigval                1452       7.139   37.47
        c-buildHS              1452       0.290    1.52
        cdiag                  1452       6.848   35.94
         cdiag1                1452       0.391    2.05
         cdiag2                1452       0.917    4.81
         cdiag3                1452       5.414   28.41
       c-eigvec                1452       7.524   39.48
        cdiag                  1452       7.233   37.96
         cdiag1                1452       0.398    2.09
         cdiag2                1452       0.929    4.88
         cdiag3                1452       5.470   28.71
         cdiag4                1452       0.269    1.41
       c-buildD                1452       0.668    3.50
     setup_H                     11       1.999   10.49
      DHSCF                      11       1.998   10.49
       DHSCF3                    11       1.998   10.49
        rhoofd                   11       1.100    5.77
        COMM_BSC                 22       0.027    0.14
        POISON                   11       0.132    0.69
         fft                     22       0.131    0.69
        XC                       11       0.061    0.32
         COMM_BSC                22       0.001    0.01
         GXC-CellXC              11       0.060    0.31
          gridxc@cellXC          11       0.060    0.31
        vmat                     11       0.677    3.55
     MIXER                       10       0.004    0.02
    PostSCF                       1       0.648    3.40
     naefs                        1       0.000    0.00
     kinefsm                      1       0.003    0.02
     nlefsm                       1       0.052    0.27
     DHSCF                        1       0.519    2.73
      DHSCF3                      1       0.195    1.02
       rhoofd                     1       0.104    0.54
       COMM_BSC                   2       0.000    0.00
       POISON                     1       0.009    0.05
        fft                       2       0.009    0.05
       XC                         1       0.007    0.04
        COMM_BSC                  2       0.000    0.00
        GXC-CellXC                1       0.007    0.04
         gridxc@cellXC            1       0.007    0.04
       vmat                       1       0.075    0.39
      DHSCF4                      1       0.325    1.70
       REORD                     10       0.000    0.00
       COMM_BSC                   2       0.000    0.00
       dfscf                      1       0.298    1.57
     overfsm                      1       0.003    0.02
     MolMec                       1       0.000    0.00
     writeHSX                     1       0.007    0.04
    state_analysis                1       0.001    0.00
    siesta_move                   1       0.000    0.00
   Analysis                       1       0.020    0.10
    optical                       1       0.000    0.00

>> End of run:  17-APR-2024  20:42:16
Job completed