Runtime information:
* Directory : /home/ICN2/jgarridoa/aiida_run/94/47/3587-c356-4b0f-9e0f-68d7d26a3c5c
>> Start of run:  17-APR-2024   1:26:06

reinit: Reading from standard input
reinit: Dumping input in INPUT_TMP.01167
************************** Dump of input data file ****************************
atomiccoordinatesformat Ang
cdfsave True
dminitspinaf False
dmmixingweight 0.025
dmmixscf1 True
dmnumberpulay 10
dmtolerance 1e-05
electronictemperature 50.000 K
geometrymustconverge T
latticeconstant 1.0 Ang
maxscfiterations 1000
meshcutoff 400 Ry
noncollinearspin False
numberofatoms 2
numberofspecies 2
savehs True
solutionmethod diagon
spinorbit False
spinpolarized False
systemlabel aiida
systemname aiida
usetreetimer T
writedmhsnetcdf True
writeorbmom True
xcauthors PBEsol
xcfunctional GGA
xmlwrite T
#
# -- Basis Set Info follows
#
PAO-BasisSize DZP
PAO-SplitNorm 0.15
PAO-EnergyShift 0.005 Ry
#
# -- Structural Info follows
#
%block chemicalspecieslabel
    1     7      N
    2     5      B
%endblock chemicalspecieslabel
%block lattice-vectors
      3.5999900000       0.0000000000       0.0000000000
      0.0000000000       3.5999900000       0.0000000000
      0.0000000000       0.0000000000       3.5999900000
%endblock lattice-vectors
%block atomiccoordinatesandatomicspecies
      0.0000000000       0.0000000000       3.3314667459    1      N      1
      0.0000000000       0.0000000000       1.9084986986    2      B      2
%endblock atomiccoordinatesandatomicspecies
#
# -- K-points Info follows
#
%block kgrid_monkhorst_pack
     8      0      0       0.0000000000
     0      8      0       0.0000000000
     0      0      8       0.0000000000
%endblock kgrid_monkhorst_pack
#
#
maxwalltime 7200000
************************** End of input data file *****************************

reinit: -----------------------------------------------------------------------
reinit: System Name: aiida
reinit: -----------------------------------------------------------------------
reinit: System Label: aiida
reinit: -----------------------------------------------------------------------

initatom: Reading input for the pseudopotentials and atomic orbitals ----------
Species number:   1 Atomic number:    7 Label: N
Species number:   2 Atomic number:    5 Label: B

---- Processing specs for species: N
Ground state valence configuration:   2s02  2p03
Reading pseudopotential information in PSML from:
  N.psml
PSML file version: 1.1
GGA--PBEsol XC_GGA_X_PBE_SOL--XC_GGA_C_PBE_SOL ps
PSML uuid: 56b43770-1d5f-11e8-525f-e1e3c77dc801

---- Processing specs for species: B
Ground state valence configuration:   2s02  2p01
Reading pseudopotential information in PSML from:
  B.psml
PSML file version: 1.1
GGA--PBEsol XC_GGA_X_PBE_SOL--XC_GGA_C_PBE_SOL ps
PSML uuid: 4c4355a0-1d5f-11e8-6182-f22cff9f01b0

---- Pseudopotential check for N

Pseudized shells:
2s( 2.00) rc: 1.21
2p( 3.00) rc: 1.36
Valence configuration for ps generation: 2s:2p: Total charge:   5.000000

---- Pseudopotential check for B

Pseudized shells:
2s( 2.00) rc: 1.21
2p( 1.00) rc: 1.21
Valence configuration for ps generation: 2s:2p: Total charge:   3.000000
For N, standard SIESTA heuristics set lmxkb to 3
 (one more than the basis l, including polarization orbitals).
Use PS.lmax or PS.KBprojectors blocks to override.
For B, standard SIESTA heuristics set lmxkb to 3
 (one more than the basis l, including polarization orbitals).
Use PS.lmax or PS.KBprojectors blocks to override.
N pseudopotential only contains V_ls up to l=1 -- lmxkb reset.
B pseudopotential only contains V_ls up to l=1 -- lmxkb reset.

<basis_specs>
N                    Z=   7    Mass=  14.007        Charge= 0.17977+309
Lmxo=2 Lmxkb= 1    BasisType=split      Semic=F
L=0  Nsemic=0  Cnfigmx=2
          i=1  nzeta=2  polorb=0  (2s)
            splnorm:   0.15000
               vcte:    40.000
               rinn:  -0.90000
               qcoe:    0.0000
               qyuk:    0.0000
               qwid:   0.10000E-01
                rcs:    0.0000      0.0000
            lambdas:    1.0000      1.0000
L=1  Nsemic=0  Cnfigmx=2
          i=1  nzeta=2  polorb=1  (2p)  (to be polarized perturbatively)
            splnorm:   0.15000
               vcte:    40.000
               rinn:  -0.90000
               qcoe:    0.0000
               qyuk:    0.0000
               qwid:   0.10000E-01
                rcs:    0.0000      0.0000
            lambdas:    1.0000      1.0000
L=2  Nsemic=0  Cnfigmx=3
          i=1  nzeta=0  polorb=0  (3d)  (perturbative polarization orbital) (from 2p)
L=0  Nkbl=1  erefs: 0.17977+309
L=1  Nkbl=1  erefs: 0.17977+309
</basis_specs>

Using PAO.SplitTailNorm
atom: Called for N                     (Z =   7)
NOTE: N pseudopotential has channels up to l= 1
NOTE: PAOs with higher l will be generated with V_local
Maximum radius (at nrval) set to   50.00000 8518

read_vps: Pseudopotential generation method:
read_vps: ONCVPSP-3.Hamann's oncvpsp
Valence charge in pseudo generation:    5.00000

read_vps: Pseudopotential includes a core correction:
read_vps: Pseudo-core for xc-correction

xc_check: Exchange-correlation functional:
xc_check: GGA PBEsol
Got Vlocal (oncv-fit) from psml data
Choosing vlocal chloc cutoff:  6.038618
qtot up to nchloc:    4.99997633
atom: Maximum radius for chlocal:    6.03862
atom: Maximum radius for r*vlocal+2*Zval:    6.03862
Reading KB projs from N psml data
Using scalar-relativistic projectors in PSML file

PSML: Kleinman-Bylander projectors:
   l= 0   rc=  1.214864   Ekb= 14.928379
   l= 0   rc=  1.221004   Ekb=  1.251736
   l= 1   rc=  1.375180   Ekb= -8.619428
   l= 1   rc=  1.375180   Ekb= -2.025883

PSML: Total number of  Kleinman-Bylander projectors:   8
atom: -------------------------------------------------------------------------

atom: SANKEY-TYPE ORBITALS:
atom: Selected multiple-zeta basis: split

SPLIT: Orbitals with angular momentum L= 0

SPLIT: Basis orbitals for state 2s

SPLIT: PAO cut-off radius determined from an
SPLIT: energy shift=  0.005000 Ry
Split based on tail norm

   izeta = 1
                 lambda =    1.000000
                     rc =    4.265195
                 energy =   -1.350827
                kinetic =    1.238925
    potential(screened) =   -2.589752
       potential(ionic) =   -8.091187

   izeta = 2
                 rmatch =    2.696970
              splitnorm =    0.150000
                 energy =   -1.041987
                kinetic =    2.172223
    potential(screened) =   -3.214210
       potential(ionic) =   -9.191634

[...]

SPLIT: Basis orbitals for state 2p

[...]

   izeta = 2
                 rmatch =    3.312873
              splitnorm =    0.150000
                 energy =   -0.376057
                kinetic =    4.835938
    potential(screened) =   -5.211995
       potential(ionic) =  -11.044105
*Note: V_local used for l= 2

** Using vlocal for PAOs with L= 2

POLgen: Perturbative polarization orbital with L=  2

POLgen: Polarization orbital for state 2p
*Note: V_local used for lpol= 2

** Using vlocal for PAOs with L= 2
Split based on tail norm

   izeta = 1
                     rc =    5.253677
                 energy =    1.558482
                kinetic =    2.921564
    potential(screened) =   -1.363082
       potential(ionic) =   -5.578203
atom: Total number of Sankey-type orbitals: 13

atm_pop: Valence configuration (for local Pseudopot. screening):
 2s( 2.00)
 2p( 3.00)
 3d( 0.00)
Vna: chval, zval:    5.00000   5.00000

Vna:  Cut-off radius for the neutral-atom potential:   5.253677
comcore: Pseudo-core radius Rcore=  1.572221

atom: _________________________________________________________________________

<basis_specs>
B                    Z=   5    Mass=  10.810        Charge= 0.17977+309
Lmxo=2 Lmxkb= 1    BasisType=split      Semic=F
L=0  Nsemic=0  Cnfigmx=2
          i=1  nzeta=2  polorb=0  (2s)
            splnorm:   0.15000
               vcte:    40.000
               rinn:  -0.90000
               qcoe:    0.0000
               qyuk:    0.0000
               qwid:   0.10000E-01
                rcs:    0.0000      0.0000
            lambdas:    1.0000      1.0000
L=1  Nsemic=0  Cnfigmx=2
          i=1  nzeta=2  polorb=1  (2p)  (to be polarized perturbatively)
            splnorm:   0.15000
               vcte:    40.000
               rinn:  -0.90000
               qcoe:    0.0000
               qyuk:    0.0000
               qwid:   0.10000E-01
                rcs:    0.0000      0.0000
            lambdas:    1.0000      1.0000
L=2  Nsemic=0  Cnfigmx=3
          i=1  nzeta=0  polorb=0  (3d)  (perturbative polarization orbital) (from 2p)
L=0  Nkbl=1  erefs: 0.17977+309
L=1  Nkbl=1  erefs: 0.17977+309
</basis_specs>

Using PAO.SplitTailNorm
atom: Called for B                     (Z =   5)
NOTE: B pseudopotential has channels up to l= 1
NOTE: PAOs with higher l will be generated with V_local
Maximum radius (at nrval) set to   50.00000 8518

read_vps: Pseudopotential generation method:
read_vps: ONCVPSP-3.Hamann's oncvpsp
Valence charge in pseudo generation:    3.00000

read_vps: Pseudopotential includes a core correction:
read_vps: Pseudo-core for xc-correction

xc_check: Exchange-correlation functional:
xc_check: GGA PBEsol
Got Vlocal (oncv-fit) from psml data
Choosing vlocal chloc cutoff:  3.201794
qtot up to nchloc:    3.00023194
atom: Maximum radius for chlocal:    3.20179
atom: Maximum radius for r*vlocal+2*Zval:    3.20179
Reading KB projs from B psml data
Using scalar-relativistic projectors in PSML file

PSML: Kleinman-Bylander projectors:
   l= 0   rc=  1.223468   Ekb= 16.933205
   l= 0   rc=  1.223468   Ekb=  2.495260
   l= 1   rc=  1.223468   Ekb= -7.218359
   l= 1   rc=  1.223468   Ekb= -1.645242

PSML: Total number of  Kleinman-Bylander projectors:   8
atom: -------------------------------------------------------------------------

atom: SANKEY-TYPE ORBITALS:
atom: Selected multiple-zeta basis: split

[...]

SPLIT: Basis orbitals for state 2s

[...]

   izeta = 2
                 rmatch =    3.823698
              splitnorm =    0.150000
                 energy =   -0.502064
                kinetic =    1.116406
    potential(screened) =   -1.618470
       potential(ionic) =   -3.792969

SPLIT: Orbitals with angular momentum L= 1

SPLIT: Basis orbitals for state 2p

SPLIT: PAO cut-off radius determined from an
SPLIT: energy shift=  0.005000 Ry
Split based on tail norm

   izeta = 1
                 lambda =    1.000000
                     rc =    7.066857
                 energy =   -0.255540
                kinetic =    1.512761
    potential(screened) =   -1.768301
       potential(ionic) =   -3.690166

   izeta = 2
                 rmatch =    4.748011
              splitnorm =    0.150000
                 energy =   -0.176810
                kinetic =    2.206388
    potential(screened) =   -2.383198
       potential(ionic) =   -4.488680
*Note: V_local used for l= 2

** Using vlocal for PAOs with L= 2

POLgen: Perturbative polarization orbital with L=  2

POLgen: Polarization orbital for state 2p
*Note: V_local used for lpol= 2

** Using vlocal for PAOs with L= 2
Split based on tail norm

   izeta = 1
                     rc =    7.066857
[...]
redata: Require DM convergence for SCF              =   T
redata: DM tolerance for SCF                        =     0.000010
redata: Require EDM convergence for SCF             =   F
redata: EDM tolerance for SCF                       =     0.001000 eV
redata: Require H convergence for SCF               =   T
redata: Hamiltonian tolerance for SCF               =     0.001000 eV
redata: Require (free) Energy convergence for SCF   =   F
redata: (free) Energy tolerance for SCF             =     0.000100 eV
redata: Using DFT-D3 dispersion                     =   F
redata: Using Saved Data (generic)                  =   F
redata: Use continuation files for DM               =   T
redata: Neglect nonoverlap interactions             =   F
redata: Method of Calculation                       = Diagonalization
redata: Electronic Temperature                      =    50.0000 K
redata: Fix the spin of the system                  =   F
redata: Max. number of TDED Iter                    =        1
redata: Number of TDED substeps                     =        3
redata: Dynamics option                             = Single-point calculation
mix.SCF: Pulay mixing                            = Pulay
mix.SCF:    Variant                              = stable
mix.SCF:    History steps                        = 10
mix.SCF:    Linear mixing weight                 =     0.025000
mix.SCF:    Mixing weight                        =     0.025000
mix.SCF:    SVD condition                        = 0.1000E-07
redata: ***********************************************************************

%block SCF.Mixers
  Pulay
%endblock SCF.Mixers

%block SCF.Mixer.Pulay
  # Mixing method
  method pulay
  variant stable

  # Mixing options
  weight 0.0250
  weight.linear 0.0250
  history 10
%endblock SCF.Mixer.Pulay

DM_history_depth set to one: no extrapolation allowed by default for geometry relaxation
Size of DM history Fstack: 1
Total number of electrons:     8.000000
Total ionic charge:     8.000000

* ProcessorY, Blocksize:    6   1

* Orbital distribution balance (max,min):     2     1

k-point displ. along   1 input, could be:     0.00    0.50
k-point displ. along   2 input, could be:     0.00    0.50
k-point displ. along   3 input, could be:     0.00    0.50
 Kpoints in:          320 . Kpoints trimmed:          296

siesta: k-grid: Number of k-points = 296
siesta: k-points from Monkhorst-Pack grid
siesta: k-cutoff (effective) =    14.400 Ang
siesta: k-point supercell and displacements
siesta: k-grid:     8     0     0      0.000
siesta: k-grid:     0     8     0      0.000
siesta: k-grid:     0     0     8      0.000

diag: Algorithm                                     = D&C
diag: Parallel over k                               =   F
diag: Use parallel 2D distribution                  =   T
diag: Parallel block-size                           = 1
diag: Parallel distribution                         =     4 x     6
diag: Used triangular part                          = Lower
diag: Absolute tolerance                            =  0.100E-15
diag: Orthogonalization factor                      =  0.100E-05

superc: Internal auxiliary supercell:     5 x     5 x     5  =     125
superc: Number of atoms, orbitals, and projectors:    250   3250   2000

ts: **************************************************************
ts: Save H and S matrices                           =    F
ts: Save DM and EDM matrices                        =    F
ts: Only save the overlap matrix S                  =    F
ts: **************************************************************

************************ Begin: TS CHECKS AND WARNINGS ************************
************************ End: TS CHECKS AND WARNINGS **************************

                        Single-point calculation

superc: Internal auxiliary supercell:     5 x     5 x     5  =     125
superc: Number of atoms, orbitals, and projectors:    250   3250   2000

outcell: Unit cell vectors (Ang):
        3.599990    0.000000    0.000000
        0.000000    3.599990    0.000000
        0.000000    0.000000    3.599990

outcell: Cell vector modules (Ang)   :    3.599990    3.599990    3.599990
outcell: Cell angles (23,13,12) (deg):     90.0000     90.0000     90.0000
outcell: Cell volume (Ang**3)        :     46.6556
<dSpData1D:S at geom step 0
  <sparsity:sparsity for geom step 0
    nrows_g=26 nrows=2 sparsity=1.5311 nnzs=1035, refcount: 7>
  <dData1D:(new from dSpData1D) n=1035, refcount: 1>
refcount: 1>
new_DM -- step:     1
Initializing Density Matrix...

Attempting to read DM from file... Failed...
DM filled with atomic data:
<dSpData2D:DM initialized from atoms
  <sparsity:sparsity for geom step 0
    nrows_g=26 nrows=2 sparsity=1.5311 nnzs=1035, refcount: 8>
  <dData2D:DM n=1035 m=1, refcount: 1>
refcount: 1>
No. of atoms with KB's overlaping orbs in proc 0. Max # of overlaps:      17     103

InitMesh: MESH = 48 x 48 x 48 = 110592
InitMesh: Mesh cutoff (required, used) =   400.000   491.340 Ry
New grid distribution [1]: sub = 2
New grid distribution [2]: sub = 2
New grid distribution [3]: sub = 2
Setting up quadratic distribution...

stepf: Fermi-Dirac step function

siesta: Program's energy decomposition (eV):
siesta: Ebs     =       -60.305291
siesta: Eions   =       610.591650
siesta: Ena     =       157.510037
siesta: Ekin    =       247.850003
siesta: Enl     =       -29.766793
siesta: Eso     =         0.000000
siesta: Edftu   =         0.000000
siesta: DEna    =       -11.795673
siesta: DUscf   =         6.179688
siesta: DUext   =         0.000000
siesta: Ex      =      -102.351294
siesta: Ec      =        -9.476857
siesta: Exc     =      -111.828151
siesta: EbV     =         0.000000
siesta: eta*DQ  =         0.000000
siesta: Emadel  =         0.000000
siesta: Emeta   =         0.000000
siesta: Emolmec =         0.000000
siesta: Ekinion =         0.000000
siesta: Eharris =      -347.969032
siesta: Etot    =      -352.442539
siesta: FreeEng =      -352.442539

        iscf     Eharris(eV)        E_KS(eV)     FreeEng(eV)     dDmax    Ef(eV) dHmax(eV)
   scf:    1     -347.969032     -352.442539     -352.442539  1.500036 -7.559194  8.732526
 IterSCF                          1       1.253  100.00
  compute_dm                      1       1.219   97.25
  setup_H                         1       0.034    2.70
  MIXER                           1       0.000    0.00
   scf:    2     -353.761724     -353.116835     -353.116835  0.014158 -7.417506  7.760879
   scf:    3     -355.595835     -355.836393     -355.836548  0.175036 -6.600223  1.367416
   scf:    4     -354.767622     -355.574132     -355.574172  0.082115 -6.946389  2.430681
   scf:    5     -356.177099     -355.960442     -355.960547  0.077754 -6.847918  0.692625
   scf:    6     -355.957803     -355.959169     -355.959272  0.003122 -6.852829  0.710947
   scf:    7     -355.977390     -355.990005     -355.990246  0.031108 -6.826791  0.213704
   scf:    8     -355.991195     -355.990632     -355.990872  0.001405 -6.838138  0.160644
   scf:    9     -355.979388     -355.985805     -355.986055  0.006390 -6.834059  0.332265
   scf:   10     -355.995725     -355.993098     -355.993261  0.019831 -6.836086  0.055664
   scf:   11     -355.990012     -355.992355     -355.992439  0.006963 -6.842616  0.122458
   scf:   12     -355.992296     -355.992326     -355.992410  0.000137 -6.842525  0.125585
   scf:   13     -355.993596     -355.993270     -355.993411  0.004171 -6.838252  0.017776
   scf:   14     -355.993067     -355.993185     -355.993310  0.001397 -6.838286  0.042239
   scf:   15     -355.993307     -355.993281     -355.993428  0.002034 -6.837862  0.006965
   scf:   16     -355.993281     -355.993281     -355.993431  0.000251 -6.837912  0.003409
   scf:   17     -355.993281     -355.993281     -355.993431  0.000026 -6.837917  0.002992
   scf:   18     -355.993278     -355.993280     -355.993432  0.000216 -6.837889  0.000530
   scf:   19     -355.993280     -355.993280     -355.993432  0.000003 -6.837892  0.000471

SCF Convergence by DM+H criterion
max |DM_out - DM_in|         :     0.0000027229
max |H_out - H_in|      (eV) :     0.0004707134
SCF cycle converged after 19 iterations

Using DM_out to compute the final energy and forces
No. of atoms with KB's overlaping orbs in proc 0. Max # of overlaps:      17     103

siesta: E_KS(eV) =             -355.9933

siesta: E_KS - E_eggbox =      -355.9933

siesta: Atomic forces (eV/Ang):
   Tot   -0.000000    0.000000    0.000183
   Max    2.577300
   Res    1.487952    sqrt( Sum f_i^2 / 3N )
   Max    2.577300    constrained

Stress tensor Voigt[x,y,z,yz,xz,xy] (kbar):        9.34        9.34      674.66       -0.00       -0.00       -0.00
(Free)E + p*V (eV/cell)     -362.7234
Target enthalpy (eV/cell)     -355.9934

siesta: Program's energy decomposition (eV):
siesta: Ebs     =       -94.110972
siesta: Eions   =       610.591650
siesta: Ena     =       157.510037
siesta: Ekin    =       219.793609
siesta: Enl     =       -20.179314
siesta: Eso     =         0.000000
siesta: Edftu   =         0.000000
siesta: DEna    =         2.003866
siesta: DUscf   =         0.676730
siesta: DUext   =         0.000000
siesta: Ex      =       -95.865694
siesta: Ec      =        -9.340864
siesta: Exc     =      -105.206558
siesta: EbV     =         0.000000
siesta: eta*DQ  =         0.000000
siesta: Emadel  =         0.000000
siesta: Emeta   =         0.000000
siesta: Emolmec =         0.000000
siesta: Ekinion =         0.000000
siesta: Eharris =      -355.993280
siesta: Etot    =      -355.993280
siesta: FreeEng =      -355.993432

siesta: Final energy (eV):
siesta:  Band Struct. =     -94.110972
siesta:       Kinetic =     219.793609
siesta:       Hartree =     125.580546
siesta:         Edftu =       0.000000
siesta:       Eso     =       0.000000
siesta:    Ext. field =       0.000000
siesta:         Exch. =     -95.865694
siesta:         Corr. =      -9.340864
siesta:     Bulk bias =       0.000000
siesta:   Exch.-corr. =    -105.206558
siesta:  Ion-electron =    -447.170795
siesta:       Ion-ion =    -148.990083
siesta:       Ekinion =       0.000000
siesta: D3 dispersion =       0.000000
siesta:         Total =    -355.993280
siesta:         Fermi =      -6.837892

siesta: Atomic forces (eV/Ang):
siesta:      1    0.000000    0.000000   -2.577117
siesta:      2   -0.000000    0.000000    2.577300
siesta: ----------------------------------------
siesta:    Tot   -0.000000    0.000000    0.000183

siesta: Stress tensor (static) (eV/Ang**3):
siesta:     0.005828   -0.000000   -0.000000
siesta:    -0.000000    0.005828    0.000000
siesta:    -0.000000   -0.000000    0.421091

siesta: Cell volume =         46.655611 Ang**3

siesta: Pressure (static):
siesta:                Solid            Molecule  Units
siesta:          -0.00157107         -0.00128570  Ry/Bohr**3
siesta:          -0.14424882         -0.11804772  eV/Ang**3
siesta:        -231.11209536       -189.13330443  kBar
(Free)E+ p_basis*V_orbitals  =        -354.847429
(Free)Eharris+ p_basis*V_orbitals  =        -354.847429

cite: Please see "aiida.bib" for an exhaustive BiBTeX file.
cite: Please clearly indicate Siesta version in published work: NO_VERSION_LABEL_AVAILABLE
cite: This calculation has made use of the following articles
cite: which are encouraged to be cited in a published work.
        Primary SIESTA paper
          DOI: www.doi.org/10.1088/0953-8984/14/11/302

 global_section                   1      23.702  100.00
  siesta                          1      23.702  100.00
   Setup                          1       0.140    0.59
    bands                         1       0.000    0.00
    KSV_init                      1       0.000    0.00
   IterGeom                       1      23.548   99.35
    geom_init                     1       0.839    3.54
     state_init                   1       0.035    0.15
      hsparse                     1       0.000    0.00
      overlap                     1       0.020    0.08
     Setup_H0                     1       0.765    3.23
      naefs                       1       0.000    0.00
      MolMec                      1       0.000    0.00
      kinefsm                     1       0.016    0.07
      nlefsm                      1       0.184    0.78
      DHSCF_Init                  1       0.565    2.38
       DHSCF1                     1       0.044    0.18
        INITMESH                  1       0.000    0.00
       DHSCF2                     1       0.521    2.20
        REMESH                    1       0.286    1.21
         INITMESH                 2       0.236    1.00
          SPLOAD                  2       0.236    1.00
        REORD                     2       0.000    0.00
        PHION                     1       0.093    0.39
        COMM_BSC                  1       0.000    0.00
        POISON                    1       0.001    0.00
         fft                      2       0.001    0.00
     setup_H                      1       0.039    0.17
      DHSCF                       1       0.039    0.17
       DHSCF3                     1       0.039    0.17
        rhoofd                    1       0.012    0.05
        COMM_BSC                  2       0.007    0.03
        POISON                    1       0.001    0.00
         fft                      2       0.001    0.00
        XC                        1       0.008    0.03
         COMM_BSC                 2       0.000    0.00
         GXC-CellXC               1       0.008    0.03
          gridxc@cellXC           1       0.008    0.03
        vmat                      1       0.012    0.05
    IterSCF                      19      22.621   95.44
     compute_dm                  19      22.107   93.27
      diagon                     19      22.107   93.27
       c-eigval                5624      10.767   45.43
        c-buildHS              5624       0.083    0.35
        cdiag                  5624      10.681   45.06
         cdiag1                5624       1.019    4.30
         cdiag2                5624       2.253    9.51
         cdiag3                5624       7.141   30.13
       c-eigvec                5624      11.166   47.11
        cdiag                  5624      11.082   46.76
         cdiag1                5624       1.022    4.31
         cdiag2                5624       2.273    9.59
         cdiag3                5624       7.180   30.29
         cdiag4                5624       0.341    1.44
       c-buildD                5624       0.150    0.63
     setup_H                     19       0.505    2.13
      DHSCF                      19       0.505    2.13
       DHSCF3                    19       0.505    2.13
        rhoofd                   19       0.195    0.82
        COMM_BSC                 38       0.031    0.13
        POISON                   19       0.018    0.08
         fft                     38       0.017    0.07
        XC                       19       0.113    0.48
         COMM_BSC                38       0.003    0.01
         GXC-CellXC              19       0.110    0.47
          gridxc@cellXC          19       0.110    0.47
        vmat                     19       0.146    0.61
     MIXER                       18       0.001    0.00
    PostSCF                       1       0.086    0.36
     naefs                        1       0.000    0.00
     kinefsm                      1       0.000    0.00
     nlefsm                       1       0.004    0.01
     DHSCF                        1       0.079    0.34
      DHSCF3                      1       0.025    0.11
       rhoofd                     1       0.010    0.04
       COMM_BSC                   2       0.000    0.00
       POISON                     1       0.001    0.00
        fft                       2       0.001    0.00
       XC                         1       0.006    0.03
        COMM_BSC                  2       0.000    0.00
        GXC-CellXC                1       0.006    0.02
         gridxc@cellXC            1       0.006    0.02
       vmat                       1       0.008    0.03
      DHSCF4                      1       0.054    0.23
       REORD                     10       0.000    0.00
       COMM_BSC                   2       0.004    0.02
       dfscf                      1       0.030    0.13
     overfsm                      1       0.000    0.00
     MolMec                       1       0.000    0.00
     writeHSX                     1       0.000    0.00
    state_analysis                1       0.000    0.00
    siesta_move                   1       0.000    0.00
   Analysis                       1       0.013    0.06
    optical                       1       0.000    0.00

>> End of run:  17-APR-2024   1:26:30
Job completed