Runtime information:
* Directory : /home/ICN2/jgarridoa/aiida_run/18/69/3506-5869-4f28-a30e-529f27e01ed7
>> Start of run:  15-APR-2024  11:06:38

reinit: Reading from standard input
reinit: Dumping input in INPUT_TMP.32952
************************** Dump of input data file ****************************
atomiccoordinatesformat Ang
cdfsave True
dminitspinaf False
dmmixingweight 0.025
dmmixscf1 True
dmnumberpulay 10
dmtolerance 1e-05
electronictemperature 50.000 K
geometrymustconverge T
latticeconstant 1.0 Ang
maxscfiterations 1000
meshcutoff 400 Ry
noncollinearspin False
numberofatoms 2
numberofspecies 1
savehs True
solutionmethod diagon
spinorbit False
spinpolarized False
systemlabel aiida
systemname aiida
usetreetimer T
writedmhsnetcdf True
writeorbmom True
xcauthors PBEsol
xcfunctional GGA
xmlwrite T
#
# -- Basis Set Info follows
#
PAO-BasisSize DZP
PAO-SplitNorm 0.15
PAO-EnergyShift 0.005 Ry
#
# -- Structural Info follows
#
%block chemicalspecieslabel
    1     6      C
%endblock chemicalspecieslabel
%block lattice-vectors
      3.5999900000       0.0000000000       0.0000000000
      0.0000000000       3.5999900000       0.0000000000
      0.0000000000       0.0000000000       3.5999900000
%endblock lattice-vectors
%block atomiccoordinatesandatomicspecies
      0.0000000000       0.0000000000       3.4481784217    1      C      1
      0.0000000000       0.0000000000       2.3761733995    1      C      2
%endblock atomiccoordinatesandatomicspecies
#
# -- K-points Info follows
#
%block kgrid_monkhorst_pack
     8      0      0       0.0000000000
     0      8      0       0.0000000000
     0      0      8       0.0000000000
%endblock kgrid_monkhorst_pack
#
#
maxwalltime 7200000
************************** End of input data file *****************************

reinit: -----------------------------------------------------------------------
reinit: System Name: aiida
reinit: -----------------------------------------------------------------------
reinit: System Label: aiida
reinit: -----------------------------------------------------------------------

initatom: Reading input for the pseudopotentials and atomic orbitals ----------
Species number:   1 Atomic number:    6 Label: C

---- Processing specs for species: C
Ground state valence configuration:   2s02  2p02
Reading pseudopotential information in PSML from:
  C.psml
PSML file version: 1.1
GGA--PBEsol XC_GGA_X_PBE_SOL--XC_GGA_C_PBE_SOL ps
PSML uuid: 51a02af0-1d5f-11e8-49c3-12b9ebd99919

---- Pseudopotential check for C

Pseudized shells:
2s( 2.00) rc: 1.20
2p( 2.00) rc: 1.26
Valence configuration for ps generation: 2s:2p: Total charge:   4.000000
For C, standard SIESTA heuristics set lmxkb to 3
 (one more than the basis l, including polarization orbitals).
Use PS.lmax or PS.KBprojectors blocks to override.
C pseudopotential only contains V_ls up to l=1 -- lmxkb reset.

<basis_specs>
C                    Z=   6    Mass=  12.011        Charge= 0.17977+309
Lmxo=2 Lmxkb= 1    BasisType=split      Semic=F
L=0  Nsemic=0  Cnfigmx=2
          i=1  nzeta=2  polorb=0  (2s)
            splnorm:   0.15000
               vcte:    40.000
               rinn:  -0.90000
               qcoe:    0.0000
               qyuk:    0.0000
               qwid:   0.10000E-01
                rcs:    0.0000      0.0000
            lambdas:    1.0000      1.0000
L=1  Nsemic=0  Cnfigmx=2
          i=1  nzeta=2  polorb=1  (2p)  (to be polarized perturbatively)
            splnorm:   0.15000
               vcte:    40.000
               rinn:  -0.90000
               qcoe:    0.0000
               qyuk:    0.0000
               qwid:   0.10000E-01
                rcs:    0.0000      0.0000
            lambdas:    1.0000      1.0000
L=2  Nsemic=0  Cnfigmx=3
          i=1  nzeta=0  polorb=0  (3d)  (perturbative polarization orbital) (from 2p)
L=0  Nkbl=1  erefs: 0.17977+309
L=1  Nkbl=1  erefs: 0.17977+309
</basis_specs>

Using PAO.SplitTailNorm
atom: Called for C                     (Z =   6)
NOTE: C pseudopotential has channels up to l= 1
NOTE: PAOs with higher l will be generated with V_local
Maximum radius (at nrval) set to   50.00000 8518

read_vps: Pseudopotential generation method:
read_vps: ONCVPSP-3.Hamann's oncvpsp
Valence charge in pseudo generation:    4.00000

read_vps: Pseudopotential includes a core correction:
read_vps: Pseudo-core for xc-correction

xc_check: Exchange-correlation functional:
xc_check: GGA PBEsol
Got Vlocal (oncv-fit) from psml data
Choosing vlocal chloc cutoff:  4.114026
qtot up to nchloc:    4.00001066
atom: Maximum radius for chlocal:    4.11403
atom: Maximum radius for r*vlocal+2*Zval:    4.11403
Reading KB projs from C psml data
Using scalar-relativistic projectors in PSML file

PSML: Kleinman-Bylander projectors:
   l= 0   rc=  1.219773   Ekb= 12.937878
   l= 0   rc=  1.219773   Ekb=  0.780062
   l= 1   rc=  1.278952   Ekb= -8.359390
   l= 1   rc=  1.278952   Ekb= -1.756905

PSML: Total number of  Kleinman-Bylander projectors:   8
atom: -------------------------------------------------------------------------

atom: SANKEY-TYPE ORBITALS:
atom: Selected multiple-zeta basis: split

SPLIT: Orbitals with angular momentum L= 0

SPLIT: Basis orbitals for state 2s

SPLIT: PAO cut-off radius determined from an
SPLIT: energy shift=  0.005000 Ry
Split based on tail norm

   izeta = 1
                 lambda =    1.000000
                     rc =    4.858714
                 energy =   -0.997375
                kinetic =    0.928233
    potential(screened) =   -1.925608
       potential(ionic) =   -5.470603

   izeta = 2
                 rmatch =    3.157143
              splitnorm =    0.150000
                 energy =   -0.747328
                kinetic =    1.689643
    potential(screened) =   -2.436971
       potential(ionic) =   -6.275825

SPLIT: Orbitals with angular momentum L= 1

SPLIT: Basis orbitals for state 2p

SPLIT: PAO cut-off radius determined from an
SPLIT: energy shift=  0.005000 Ry
Split based on tail norm

   izeta = 1
                 lambda =    1.000000
                     rc =    5.984425
                 energy =   -0.378962
                kinetic =    2.440834
    potential(screened) =   -2.819796
       potential(ionic) =   -6.224005

   izeta = 2
                 rmatch =    3.889428
              splitnorm =    0.150000
                 energy =   -0.273331
                kinetic =    3.469746
    potential(screened) =   -3.743077
       potential(ionic) =   -7.475055
*Note: V_local used for l= 2

** Using vlocal for PAOs with L= 2

POLgen: Perturbative polarization orbital with L=  2

POLgen: Polarization orbital for state 2p
*Note: V_local used for lpol= 2

** Using vlocal for PAOs with L= 2
Split based on tail norm

   izeta = 1
                     rc =    5.984425
                 energy =    1.076317
                kinetic =    2.134413
    potential(screened) =   -1.058097
       potential(ionic) =   -3.835567
atom: Total number of Sankey-type orbitals: 13

atm_pop: Valence configuration (for local Pseudopot. screening):
 2s( 2.00)
 2p( 2.00)
 3d( 0.00)
Vna: chval, zval:    4.00000   4.00000

Vna:  Cut-off radius for the neutral-atom potential:   5.984425
comcore: Pseudo-core radius Rcore=  1.671741

atom: _________________________________________________________________________

prinput: Basis input

PAO.BasisType split

%block ChemicalSpeciesLabel
    1    6 C                       # Species index, atomic number, species label
%endblock ChemicalSpeciesLabel

%block PAO.Basis                 # Define Basis set
# WARNING: This information might be incomplete!
C                     2                    # Species label, number of l-shells
 n=2   0   2                         # n, l, Nzeta
   4.859      3.157
   1.000      1.000
 n=2   1   2 P   1                   # n, l, Nzeta, Polarization, NzetaPol
   5.984      3.889
   1.000      1.000
%endblock PAO.Basis

prinput: ----------------------------------------------------------------------

coor:   Atomic-coordinates input format  =     Cartesian coordinates
coor:                                          (in Angstroms)

siesta: Atomic coordinates (Bohr) and species
siesta:      0.00000   0.00000   6.51611  1        1
siesta:      0.00000   0.00000   4.49032  1        2

siesta: System type = bulk

initatomlists: Number of atoms, orbitals, and projectors:      2    26    16

siesta: ******************** Simulation parameters ****************************
siesta:
siesta: The following are some of the parameters of the simulation.
siesta: A complete list of the parameters used, including default values,
siesta: can be found in file out.fdf
siesta:
redata: Spin configuration                          = none
redata: Number of spin components                   = 1
redata: Time-Reversal Symmetry                      = T
redata: Spin spiral                                 = F
redata: Long output                                 =   F
redata: Number of Atomic Species                    =        1
redata: Charge density info will appear in .RHO file
redata: Write Mulliken Pop.                         = NO
redata: Matel table size (NRTAB)                    =     1024
redata: Mesh Cutoff                                 =   400.0000 Ry
redata: Net charge of the system                    =     0.0000 |e|
redata: Min. number of SCF Iter                     =        0
redata: Max. number of SCF Iter                     =     1000
redata: SCF convergence failure will abort job
redata: SCF mix quantity                            = Hamiltonian
redata: Mix DM or H after convergence               =   F
redata: Recompute H after scf cycle                 =   F
redata: Mix DM in first SCF step                    =   T
redata: Write Pulay info on disk                    =   F
redata: New DM Occupancy tolerance                  = 0.000000000001
redata: No kicks to SCF
redata: DM Mixing Weight for Kicks                  =     0.5000
redata: Require Harris convergence for SCF          =   F
redata: Harris energy tolerance for SCF             =     0.000100 eV
redata: Require DM convergence for SCF              =   T
redata: DM tolerance for SCF                        =     0.000010
redata: Require EDM convergence for SCF             =   F
redata: EDM tolerance for SCF                       =     0.001000 eV
redata: Require H convergence for SCF               =   T
redata: Hamiltonian tolerance for SCF               =     0.001000 eV
redata: Require (free) Energy convergence for SCF   =   F
redata: (free) Energy tolerance for SCF             =     0.000100 eV
redata: Using DFT-D3 dispersion                     =   F
redata: Using Saved Data (generic)                  =   F
redata: Use continuation files for DM               =   T
redata: Neglect nonoverlap interactions             =   F
redata: Method of Calculation                       = Diagonalization
redata: Electronic Temperature                      =    50.0000 K
redata: Fix the spin of the system                  =   F
redata: Max. number of TDED Iter                    =        1
redata: Number of TDED substeps                     =        3
redata: Dynamics option                             = Single-point calculation
mix.SCF: Pulay mixing                            = Pulay
mix.SCF:    Variant                              = stable
mix.SCF:    History steps                        = 10
mix.SCF:    Linear mixing weight                 =     0.025000
mix.SCF:    Mixing weight                        =     0.025000
mix.SCF:    SVD condition                        = 0.1000E-07
redata: ***********************************************************************

%block SCF.Mixers
  Pulay
%endblock SCF.Mixers

%block SCF.Mixer.Pulay
  # Mixing method
  method pulay
  variant stable

  # Mixing options
  weight 0.0250
  weight.linear 0.0250
  history 10
%endblock SCF.Mixer.Pulay

DM_history_depth set to one: no extrapolation allowed by default for geometry relaxation
Size of DM history Fstack: 1
Total number of electrons:     8.000000
Total ionic charge:     8.000000

* ProcessorY, Blocksize:    6   1

* Orbital distribution balance (max,min):     2     1

k-point displ. along   1 input, could be:     0.00    0.50
k-point displ. along   2 input, could be:     0.00    0.50
k-point displ. along   3 input, could be:     0.00    0.50
 Kpoints in:          320 . Kpoints trimmed:          296

siesta: k-grid: Number of k-points = 296
siesta: k-points from Monkhorst-Pack grid
siesta: k-cutoff (effective) =    14.400 Ang
siesta: k-point supercell and displacements
siesta: k-grid:     8     0     0      0.000
siesta: k-grid:     0     8     0      0.000
siesta: k-grid:     0     0     8      0.000

diag: Algorithm                                     = D&C
diag: Parallel over k                               =   F
diag: Use parallel 2D distribution                  =   T
diag: Parallel block-size                           = 1
diag: Parallel distribution                         =     4 x     6
diag: Used triangular part                          = Lower
diag: Absolute tolerance                            =  0.100E-15
diag: Orthogonalization factor                      =  0.100E-05

superc: Internal auxiliary supercell:     5 x     5 x     5  =     125
superc: Number of atoms, orbitals, and projectors:    250   3250   2000

ts: **************************************************************
ts: Save H and S matrices                           =    F
ts: Save DM and EDM matrices                        =    F
ts: Only save the overlap matrix S                  =    F
ts: **************************************************************

************************ Begin: TS CHECKS AND WARNINGS ************************
************************ End: TS CHECKS AND WARNINGS **************************

                        Single-point calculation

superc: Internal auxiliary supercell:     5 x     5 x     5  =     125
superc: Number of atoms, orbitals, and projectors:    250   3250   2000

outcell: Unit cell vectors (Ang):
        3.599990    0.000000    0.000000
        0.000000    3.599990    0.000000
        0.000000    0.000000    3.599990

outcell: Cell vector modules (Ang)   :    3.599990    3.599990    3.599990
outcell: Cell angles (23,13,12) (deg):     90.0000     90.0000     90.0000
outcell: Cell volume (Ang**3)        :     46.6556
<dSpData1D:S at geom step 0
  <sparsity:sparsity for geom step 0
    nrows_g=26 nrows=2 sparsity=1.5621 nnzs=1056, refcount: 7>
  <dData1D:(new from dSpData1D) n=1056, refcount: 1>
refcount: 1>
new_DM -- step:     1
Initializing Density Matrix...

Attempting to read DM from file... Failed...
DM filled with atomic data:
<dSpData2D:DM initialized from atoms
  <sparsity:sparsity for geom step 0
    nrows_g=26 nrows=2 sparsity=1.5621 nnzs=1056, refcount: 8>
  <dData2D:DM n=1056 m=1, refcount: 1>
refcount: 1>
No. of atoms with KB's overlaping orbs in proc 0. Max # of overlaps:      13     118

InitMesh: MESH = 48 x 48 x 48 = 110592
InitMesh: Mesh cutoff (required, used) =   400.000   491.340 Ry
New grid distribution [1]: sub = 2
New grid distribution [2]: sub = 2
New grid distribution [3]: sub = 2
Setting up quadratic distribution...

stepf: Fermi-Dirac step function

siesta: Program's energy decomposition (eV):
siesta: Ebs     =       -88.445300
siesta: Eions   =       564.684353
siesta: Ena     =       162.048501
siesta: Ekin    =       224.906411
siesta: Enl     =        -8.675472
siesta: Eso     =         0.000000
siesta: Edftu   =         0.000000
siesta: DEna    =       -19.019991
siesta: DUscf   =         3.702522
siesta: DUext   =         0.000000
siesta: Ex      =      -102.460250
siesta: Ec      =        -9.933013
siesta: Exc     =      -112.393263
siesta: EbV     =         0.000000
siesta: eta*DQ  =         0.000000
siesta: Emadel  =         0.000000
siesta: Emeta   =         0.000000
siesta: Emolmec =         0.000000
siesta: Ekinion =         0.000000
siesta: Eharris =      -314.569749
siesta: Etot    =      -314.115644
siesta: FreeEng =      -314.115644

        iscf     Eharris(eV)        E_KS(eV)     FreeEng(eV)     dDmax    Ef(eV) dHmax(eV)
   scf:    1     -314.569749     -314.115644     -314.115644  1.085962 -9.086241  3.924684
 IterSCF                          1       1.214  100.00
  compute_dm                      1       1.195   98.45
  setup_H                         1       0.018    1.49
  MIXER                           1       0.000    0.00
   scf:    2     -314.266502     -314.191347     -314.191347  0.010528 -8.928691  3.761862
   scf:    3     -315.700311     -315.151239     -315.151239  0.234764 -8.339862  0.363580
   scf:    4     -313.398586     -314.443627     -314.443798  0.154029 -7.562983  2.886233
   scf:    5     -313.842012     -314.150063     -314.150197  0.029946 -7.379673  3.397337
   scf:    6     -315.673346     -315.154164     -315.154164  0.180348 -8.411915  0.148996
   scf:    7     -315.154604     -315.154412     -315.154412  0.003004 -8.522077  0.099387
   scf:    8     -315.155924     -315.155295     -315.155295  0.003978 -8.507089  0.017212
mix: Pulay -- inversion failed, > SVD [rank/size] 4 / 7
   scf:    9     -315.155337     -315.155318     -315.155318  0.000631 -8.513829  0.004469
mix: Pulay -- inversion failed, > SVD [rank/size] 4 / 8
   scf:   10     -315.155321     -315.155319     -315.155319  0.000100 -8.515389  0.002469
mix: Pulay -- inversion failed, > SVD [rank/size] 4 / 9
   scf:   11     -315.155320     -315.155320     -315.155320  0.000015 -8.515556  0.002204
mix: Pulay -- inversion failed, > SVD [rank/size] 4 / 9
   scf:   12     -315.155320     -315.155320     -315.155320  0.000009 -8.515650  0.002049
mix: Pulay -- inversion failed, > SVD [rank/size] 4 / 9
   scf:   13     -315.155320     -315.155320     -315.155320  0.000081 -8.516816  0.000417
mix: Pulay -- inversion failed, > SVD [rank/size] 4 / 9
   scf:   14     -315.155320     -315.155320     -315.155320  0.000006 -8.516755  0.000498

SCF Convergence by DM+H criterion
max |DM_out - DM_in|         :     0.0000058323
max |H_out - H_in|      (eV) :     0.0004980355
SCF cycle converged after 14 iterations

Using DM_out to compute the final energy and forces
No. of atoms with KB's overlaping orbs in proc 0. Max # of overlaps:      13     118

siesta: E_KS(eV) =             -315.1553

siesta: E_KS - E_eggbox =      -315.1553

siesta: Atomic forces (eV/Ang):
   Tot    0.000000   -0.000000   -0.003584
   Max   31.786772
   Res   18.351067    sqrt( Sum f_i^2 / 3N )
   Max   31.786772    constrained

Stress tensor Voigt[x,y,z,yz,xz,xy] (kbar):        6.00        6.00     -651.10       -0.00       -0.00       -0.00
(Free)E + p*V (eV/cell)     -308.9518
Target enthalpy (eV/cell)     -315.1553

siesta: Program's energy decomposition (eV):
siesta: Ebs     =      -101.352828
siesta: Eions   =       564.684353
siesta: Ena     =       162.048501
siesta: Ekin    =       211.339066
siesta: Enl     =        -6.430243
siesta: Eso     =         0.000000
siesta: Edftu   =         0.000000
siesta: DEna    =        -9.469899
siesta: DUscf   =         1.547661
siesta: DUext   =         0.000000
siesta: Ex      =       -99.669277
siesta: Ec      =        -9.836776
siesta: Exc     =      -109.506053
siesta: EbV     =         0.000000
siesta: eta*DQ  =         0.000000
siesta: Emadel  =         0.000000
siesta: Emeta   =         0.000000
siesta: Emolmec =         0.000000
siesta: Ekinion =         0.000000
siesta: Eharris =      -315.155320
siesta: Etot    =      -315.155320
siesta: FreeEng =      -315.155320

siesta: Final energy (eV):
siesta:  Band Struct. =    -101.352828
siesta:       Kinetic =     211.339066
siesta:       Hartree =     126.330160
siesta:         Edftu =       0.000000
siesta:       Eso     =       0.000000
siesta:    Ext. field =       0.000000
siesta:         Exch. =     -99.669277
siesta:         Corr. =      -9.836776
siesta:     Bulk bias =       0.000000
siesta:   Exch.-corr. =    -109.506053
siesta:  Ion-electron =    -446.401759
siesta:       Ion-ion =     -96.916734
siesta:       Ekinion =       0.000000
siesta: D3 dispersion =       0.000000
siesta:         Total =    -315.155320
siesta:         Fermi =      -8.516755

siesta: Atomic forces (eV/Ang):
siesta:      1    0.000000   -0.000000   31.783188
siesta:      2   -0.000000    0.000000  -31.786772
siesta: ----------------------------------------
siesta:    Tot    0.000000   -0.000000   -0.003584

siesta: Stress tensor (static) (eV/Ang**3):
siesta:     0.003747   -0.000000   -0.000000
siesta:    -0.000000    0.003747   -0.000000
siesta:    -0.000000   -0.000000   -0.406386

siesta: Cell volume =         46.655611 Ang**3

siesta: Pressure (static):
siesta:                Solid            Molecule  Units
siesta:           0.00144816         -0.00120324  Ry/Bohr**3
siesta:           0.13296418         -0.11047676  eV/Ang**3
siesta:         213.03210113       -177.00329015  kBar
(Free)E+ p_basis*V_orbitals  =        -314.173364
(Free)Eharris+ p_basis*V_orbitals  =        -314.173364

cite: Please see "aiida.bib" for an exhaustive BiBTeX file.
cite: Please clearly indicate Siesta version in published work: NO_VERSION_LABEL_AVAILABLE
cite: This calculation has made use of the following articles
cite: which are encouraged to be cited in a published work.
        Primary SIESTA paper
          DOI: www.doi.org/10.1088/0953-8984/14/11/302

 global_section                   1      16.586  100.00
  siesta                          1      16.586  100.00
   Setup                          1       0.082    0.50
    bands                         1       0.000    0.00
    KSV_init                      1       0.000    0.00
   IterGeom                       1      16.490   99.42
    geom_init                     1       0.252    1.52
     state_init                   1       0.021    0.12
      hsparse                     1       0.000    0.00
      overlap                     1       0.009    0.06
     Setup_H0                     1       0.200    1.21
      naefs                       1       0.000    0.00
      MolMec                      1       0.000    0.00
      kinefsm                     1       0.007    0.04
      nlefsm                      1       0.026    0.16
      DHSCF_Init                  1       0.167    1.01
       DHSCF1                     1       0.029    0.18
        INITMESH                  1       0.000    0.00
       DHSCF2                     1       0.137    0.83
        REMESH                    1       0.050    0.30
         INITMESH                 2       0.039    0.24
          SPLOAD                  2       0.039    0.24
        REORD                     2       0.000    0.00
        PHION                     1       0.033    0.20
        COMM_BSC                  1       0.000    0.00
        POISON                    1       0.001    0.01
         fft                      2       0.001    0.01
     setup_H                      1       0.032    0.19
      DHSCF                       1       0.032    0.19
       DHSCF3                     1       0.032    0.19
        rhoofd                    1       0.010    0.06
        COMM_BSC                  2       0.001    0.00
        POISON                    1       0.004    0.02
         fft                      2       0.004    0.02
        XC                        1       0.008    0.05
         COMM_BSC                 2       0.000    0.00
         GXC-CellXC               1       0.008    0.05
          gridxc@cellXC           1       0.008    0.05
        vmat                      1       0.009    0.05
    IterSCF                      14      16.168   97.48
     compute_dm                  14      15.881   95.75
      diagon                     14      15.881   95.75
       c-eigval                4144       7.819   47.14
        c-buildHS              4144       0.062    0.37
        cdiag                  4144       7.755   46.75
         cdiag1                4144       0.723    4.36
         cdiag2                4144       1.632    9.84
         cdiag3                4144       5.199   31.35
       c-eigvec                4144       7.944   47.89
        cdiag                  4144       7.881   47.52
         cdiag1                4144       0.708    4.27
         cdiag2                4144       1.609    9.70
         cdiag3                4144       5.139   30.98
         cdiag4                4144       0.236    1.42
       c-buildD                4144       0.109    0.66
     setup_H                     14       0.280    1.69
      DHSCF                      14       0.280    1.69
       DHSCF3                    14       0.280    1.69
        rhoofd                   14       0.102    0.62
        COMM_BSC                 28       0.011    0.07
        POISON                   14       0.015    0.09
         fft                     28       0.015    0.09
        XC                       14       0.073    0.44
         COMM_BSC                28       0.002    0.01
         GXC-CellXC              14       0.072    0.43
          gridxc@cellXC          14       0.072    0.43
        vmat                     14       0.077    0.46
     MIXER                       13       0.001    0.01
    PostSCF                       1       0.069    0.41
     naefs                        1       0.000    0.00
     kinefsm                      1       0.000    0.00
     nlefsm                       1       0.003    0.02
     DHSCF                        1       0.050    0.30
      DHSCF3                      1       0.021    0.13
       rhoofd                     1       0.007    0.04
       COMM_BSC                   2       0.000    0.00
       POISON                     1       0.003    0.02
        fft                       2       0.003    0.02
       XC                         1       0.006    0.04
        COMM_BSC                  2       0.000    0.00
        GXC-CellXC                1       0.006    0.04
         gridxc@cellXC            1       0.006    0.04
       vmat                       1       0.005    0.03
      DHSCF4                      1       0.029    0.17
       REORD                     10       0.000    0.00
       COMM_BSC                   2       0.001    0.01
       dfscf                      1       0.022    0.13
     overfsm                      1       0.000    0.00
     MolMec                       1       0.000    0.00
     writeHSX                     1       0.001    0.00
    state_analysis                1       0.000    0.00
    siesta_move                   1       0.000    0.00
   Analysis                       1       0.012    0.07
    optical                       1       0.000    0.00

>> End of run:  15-APR-2024  11:06:55
Job completed