Runtime information:
* Directory : /home/ICN2/jgarridoa/aiida_run/8e/2e/4544-d73b-4401-aba2-b507ab756713
>> Start of run:  17-APR-2024  20:38:31

reinit: Reading from standard input
reinit: Dumping input in INPUT_TMP.45805
************************** Dump of input data file ****************************
atomiccoordinatesformat Ang
cdfsave True
dminitspinaf False
dmmixingweight 0.025
dmmixscf1 True
dmnumberpulay 10
dmtolerance 1e-05
electronictemperature 50.000 K
geometrymustconverge T
latticeconstant 1.0 Ang
maxscfiterations 1000
meshcutoff 400 Ry
noncollinearspin False
numberofatoms 8
numberofspecies 2
savehs True
solutionmethod diagon
spinorbit False
spinpolarized False
systemlabel aiida
systemname aiida
usetreetimer T
writedmhsnetcdf True
writeorbmom True
xcauthors PBEsol
xcfunctional GGA
xmlwrite T
#
# -- Basis Set Info follows
#
PAO-BasisSize DZP
PAO-SplitNorm 0.15
PAO-EnergyShift 0.005 Ry
#
# -- Structural Info follows
#
%block chemicalspecieslabel
    1     7      N
    2     5      B
%endblock chemicalspecieslabel
%block lattice-vectors
      2.5292800000       0.0000000000       0.0000000000
      0.0000000000       8.1324400000       0.0000000000
      0.0000000000       0.0000000000       4.4712100000
%endblock lattice-vectors
%block atomiccoordinatesandatomicspecies
      2.3191221248       0.0024397320       4.3812939669    1      N      1
      1.0698854400       4.1113550420       4.3893421449    1      N      2
      1.0542797824       0.0024397320       2.1002167612    1      N      3
      2.3350565888       4.1114363664       2.1066105915    1      N      4
      2.3255970816       0.0211443440       2.8324668229    2      B      5
      1.0633851904       4.1169664256       2.8371615934    2      B      6
      1.0544568320       0.0024397320       0.6399642873    2      B      7
      2.3213225984       4.1078580928       0.6583856725    2      B      8
%endblock atomiccoordinatesandatomicspecies
#
# -- K-points Info follows
#
%block kgrid_monkhorst_pack
     6      0      0       0.0000000000
     0      6      0       0.0000000000
     0      0      6       0.0000000000
%endblock kgrid_monkhorst_pack
#
#
maxwalltime 7200000
************************** End of input data file *****************************

reinit: -----------------------------------------------------------------------
reinit: System Name: aiida
reinit: -----------------------------------------------------------------------
reinit: System Label: aiida
reinit: -----------------------------------------------------------------------

initatom: Reading input for the pseudopotentials and atomic orbitals ----------
Species number:   1 Atomic number:    7 Label: N
Species number:   2 Atomic number:    5 Label: B

---- Processing specs for species: N
Ground state valence configuration:   2s02  2p03
Reading pseudopotential information in PSML from:
  N.psml
PSML file version: 1.1
GGA--PBEsol XC_GGA_X_PBE_SOL--XC_GGA_C_PBE_SOL ps
PSML uuid: 56b43770-1d5f-11e8-525f-e1e3c77dc801

---- Processing specs for species: B
Ground state valence configuration:   2s02  2p01
Reading pseudopotential information in PSML from:
  B.psml
PSML file version: 1.1
GGA--PBEsol XC_GGA_X_PBE_SOL--XC_GGA_C_PBE_SOL ps
PSML uuid: 4c4355a0-1d5f-11e8-6182-f22cff9f01b0

---- Pseudopotential check for N

Pseudized shells:
2s( 2.00) rc: 1.21
2p( 3.00) rc: 1.36
Valence configuration for ps generation: 2s:2p: Total charge:   5.000000

---- Pseudopotential check for B

Pseudized shells:
2s( 2.00) rc: 1.21
2p( 1.00) rc: 1.21
Valence configuration for ps generation: 2s:2p: Total charge:   3.000000
For N, standard SIESTA heuristics set lmxkb to 3
 (one more than the basis l, including polarization orbitals).
Use PS.lmax or PS.KBprojectors blocks to override.
For B, standard SIESTA heuristics set lmxkb to 3
 (one more than the basis l, including polarization orbitals).
Use PS.lmax or PS.KBprojectors blocks to override.
N pseudopotential only contains V_ls up to l=1 -- lmxkb reset.
B pseudopotential only contains V_ls up to l=1 -- lmxkb reset.

<basis_specs>
N                    Z=   7    Mass=  14.007        Charge= 0.17977+309
Lmxo=2 Lmxkb= 1    BasisType=split      Semic=F
L=0  Nsemic=0  Cnfigmx=2
          i=1  nzeta=2  polorb=0  (2s)
            splnorm:   0.15000
               vcte:    40.000
               rinn:  -0.90000
               qcoe:    0.0000
               qyuk:    0.0000
               qwid:   0.10000E-01
                rcs:    0.0000      0.0000
            lambdas:    1.0000      1.0000
L=1  Nsemic=0  Cnfigmx=2
          i=1  nzeta=2  polorb=1  (2p)  (to be polarized perturbatively)
            splnorm:   0.15000
               vcte:    40.000
               rinn:  -0.90000
               qcoe:    0.0000
               qyuk:    0.0000
               qwid:   0.10000E-01
                rcs:    0.0000      0.0000
            lambdas:    1.0000      1.0000
L=2  Nsemic=0  Cnfigmx=3
          i=1  nzeta=0  polorb=0  (3d)  (perturbative polarization orbital) (from 2p)
L=0  Nkbl=1  erefs: 0.17977+309
L=1  Nkbl=1  erefs: 0.17977+309
</basis_specs>

Using PAO.SplitTailNorm
atom: Called for N                     (Z =   7)
NOTE: N pseudopotential has channels up to l= 1
NOTE: PAOs with higher l will be generated with V_local
Maximum radius (at nrval) set to   50.00000 8518

read_vps: Pseudopotential generation method:
read_vps: ONCVPSP-3.Hamann's oncvpsp
Valence charge in pseudo generation:    5.00000

read_vps: Pseudopotential includes a core correction:
read_vps: Pseudo-core for xc-correction

xc_check: Exchange-correlation functional:
xc_check: GGA PBEsol
Got Vlocal (oncv-fit) from psml data
Choosing vlocal chloc cutoff:  6.038618
qtot up to nchloc:    4.99997633
atom: Maximum radius for chlocal:    6.03862
atom: Maximum radius for r*vlocal+2*Zval:    6.03862
Reading KB projs from N psml data
Using scalar-relativistic projectors in PSML file

PSML: Kleinman-Bylander projectors:
   l= 0   rc=  1.214864   Ekb= 14.928379
   l= 0   rc=  1.221004   Ekb=  1.251736
   l= 1   rc=  1.375180   Ekb= -8.619428
   l= 1   rc=  1.375180   Ekb= -2.025883

PSML: Total number of  Kleinman-Bylander projectors:   8
atom: -------------------------------------------------------------------------

atom: SANKEY-TYPE ORBITALS:
atom: Selected multiple-zeta basis: split

SPLIT: Orbitals with angular momentum L= 0

SPLIT: Basis orbitals for state 2s

SPLIT: PAO cut-off radius determined from an
SPLIT: energy shift=  0.005000 Ry
Split based on tail norm

   izeta = 1
                 lambda =    1.000000
                     rc =    4.265195
                 energy =   -1.350827
                kinetic =    1.238925
    potential(screened) =   -2.589752
       potential(ionic) =   -8.091187

   izeta = 2
                 rmatch =    2.696970
              splitnorm =    0.150000
                 energy =   -1.041987
                kinetic =    2.172223
    potential(screened) =   -3.214210
       potential(ionic) =   -9.191634

[...]

SPLIT: Basis orbitals for state 2p

[...]

   izeta = 2
                 rmatch =    3.312873
              splitnorm =    0.150000
                 energy =   -0.376057
                kinetic =    4.835938
    potential(screened) =   -5.211995
       potential(ionic) =  -11.044105
*Note: V_local used for l= 2

** Using vlocal for PAOs with L= 2

POLgen: Perturbative polarization orbital with L=  2

POLgen: Polarization orbital for state 2p
*Note: V_local used for lpol= 2

** Using vlocal for PAOs with L= 2
Split based on tail norm

   izeta = 1
                     rc =    5.253677
                 energy =    1.558482
                kinetic =    2.921564
    potential(screened) =   -1.363082
       potential(ionic) =   -5.578203
atom: Total number of Sankey-type orbitals: 13

atm_pop: Valence configuration (for local Pseudopot. screening):
 2s( 2.00)
 2p( 3.00)
 3d( 0.00)
Vna: chval, zval:    5.00000   5.00000

Vna:  Cut-off radius for the neutral-atom potential:   5.253677
comcore: Pseudo-core radius Rcore=  1.572221

atom: _________________________________________________________________________

<basis_specs>
B                    Z=   5    Mass=  10.810        Charge= 0.17977+309
Lmxo=2 Lmxkb= 1    BasisType=split      Semic=F
L=0  Nsemic=0  Cnfigmx=2
          i=1  nzeta=2  polorb=0  (2s)
            splnorm:   0.15000
               vcte:    40.000
               rinn:  -0.90000
               qcoe:    0.0000
               qyuk:    0.0000
               qwid:   0.10000E-01
                rcs:    0.0000      0.0000
            lambdas:    1.0000      1.0000
L=1  Nsemic=0  Cnfigmx=2
          i=1  nzeta=2  polorb=1  (2p)  (to be polarized perturbatively)
            splnorm:   0.15000
               vcte:    40.000
               rinn:  -0.90000
               qcoe:    0.0000
               qyuk:    0.0000
               qwid:   0.10000E-01
                rcs:    0.0000      0.0000
            lambdas:    1.0000      1.0000
L=2  Nsemic=0  Cnfigmx=3
          i=1  nzeta=0  polorb=0  (3d)  (perturbative polarization orbital) (from 2p)
L=0  Nkbl=1  erefs: 0.17977+309
L=1  Nkbl=1  erefs: 0.17977+309
</basis_specs>

Using PAO.SplitTailNorm
atom: Called for B                     (Z =   5)
NOTE: B pseudopotential has channels up to l= 1
NOTE: PAOs with higher l will be generated with V_local
Maximum radius (at nrval) set to   50.00000 8518

read_vps: Pseudopotential generation method:
read_vps: ONCVPSP-3.Hamann's oncvpsp
Valence charge in pseudo generation:    3.00000

read_vps: Pseudopotential includes a core correction:
read_vps: Pseudo-core for xc-correction

xc_check: Exchange-correlation functional:
xc_check: GGA PBEsol
Got Vlocal (oncv-fit) from psml data
Choosing vlocal chloc cutoff:  3.201794
qtot up to nchloc:    3.00023194
atom: Maximum radius for chlocal:    3.20179
atom: Maximum radius for r*vlocal+2*Zval:    3.20179
Reading KB projs from B psml data
Using scalar-relativistic projectors in PSML file

PSML: Kleinman-Bylander projectors:
   l= 0   rc=  1.223468   Ekb= 16.933205
   l= 0   rc=  1.223468   Ekb=  2.495260
   l= 1   rc=  1.223468   Ekb= -7.218359
   l= 1   rc=  1.223468   Ekb= -1.645242

PSML: Total number of  Kleinman-Bylander projectors:   8
atom: -------------------------------------------------------------------------

atom: SANKEY-TYPE ORBITALS:
atom: Selected multiple-zeta basis: split

[...]

SPLIT: Basis orbitals for state 2s

[...]

   izeta = 2
                 rmatch =    3.823698
              splitnorm =    0.150000
                 energy =   -0.502064
                kinetic =    1.116406
    potential(screened) =   -1.618470
       potential(ionic) =   -3.792969

SPLIT: Orbitals with angular momentum L= 1

SPLIT: Basis orbitals for state 2p

SPLIT: PAO cut-off radius determined from an
SPLIT: energy shift=  0.005000 Ry
Split based on tail norm

   izeta = 1
                 lambda =    1.000000
                     rc =    7.066857
                 energy =   -0.255540
                kinetic =    1.512761
    potential(screened) =   -1.768301
       potential(ionic) =   -3.690166

   izeta = 2
                 rmatch =    4.748011
              splitnorm =    0.150000
[...]
redata: Require H convergence for SCF               =   T
redata: Hamiltonian tolerance for SCF               =     0.001000 eV
redata: Require (free) Energy convergence for SCF   =   F
redata: (free) Energy tolerance for SCF             =     0.000100 eV
redata: Using DFT-D3 dispersion                     =   F
redata: Using Saved Data (generic)                  =   F
redata: Use continuation files for DM               =   T
redata: Neglect nonoverlap interactions             =   F
redata: Method of Calculation                       = Diagonalization
redata: Electronic Temperature                      =    50.0000 K
redata: Fix the spin of the system                  =   F
redata: Max. number of TDED Iter                    =        1
redata: Number of TDED substeps                     =        3
redata: Dynamics option                             = Single-point calculation
mix.SCF: Pulay mixing                            = Pulay
mix.SCF:    Variant                              = stable
mix.SCF:    History steps                        = 10
mix.SCF:    Linear mixing weight                 =     0.025000
mix.SCF:    Mixing weight                        =     0.025000
mix.SCF:    SVD condition                        = 0.1000E-07
redata: ***********************************************************************

%block SCF.Mixers
  Pulay
%endblock SCF.Mixers

%block SCF.Mixer.Pulay
  # Mixing method
  method pulay
  variant stable

  # Mixing options
  weight 0.0250
  weight.linear 0.0250
  history 10
%endblock SCF.Mixer.Pulay

DM_history_depth set to one: no extrapolation allowed by default for geometry relaxation
Size of DM history Fstack: 1
Total number of electrons:    32.000000
Total ionic charge:    32.000000

* ProcessorY, Blocksize:    6   4

* Orbital distribution balance (max,min):     8     4

k-point displ. along   1 input, could be:     0.00    0.50
k-point displ. along   2 input, could be:     0.00    0.50
k-point displ. along   3 input, could be:     0.00    0.50
 Kpoints in:          144 . Kpoints trimmed:          132

siesta: k-grid: Number of k-points = 132
siesta: k-points from Monkhorst-Pack grid
siesta: k-cutoff (effective) =     7.588 Ang
siesta: k-point supercell and displacements
siesta: k-grid:     6     0     0      0.000
siesta: k-grid:     0     6     0      0.000
siesta: k-grid:     0     0     6      0.000

diag: Algorithm                                     = D&C
diag: Parallel over k                               =   F
diag: Use parallel 2D distribution                  =   T
diag: Parallel block-size                           = 4
diag: Parallel distribution                         =     4 x     6
diag: Used triangular part                          = Lower
diag: Absolute tolerance                            =  0.100E-15
diag: Orthogonalization factor                      =  0.100E-05

superc: Internal auxiliary supercell:     7 x     3 x     5  =     105
superc: Number of atoms, orbitals, and projectors:    840  10920   6720

ts: **************************************************************
ts: Save H and S matrices                           =    F
ts: Save DM and EDM matrices                        =    F
ts: Only save the overlap matrix S                  =    F
ts: **************************************************************

************************ Begin: TS CHECKS AND WARNINGS ************************
************************ End: TS CHECKS AND WARNINGS **************************

                        Single-point calculation

superc: Internal auxiliary supercell:     7 x     3 x     5  =     105
superc: Number of atoms, orbitals, and projectors:    840  10920   6720

outcell: Unit cell vectors (Ang):
        2.529280    0.000000    0.000000
        0.000000    8.132440    0.000000
        0.000000    0.000000    4.471210

outcell: Cell vector modules (Ang)   :    2.529280    8.132440    4.471210
outcell: Cell angles (23,13,12) (deg):     90.0000     90.0000     90.0000
outcell: Cell volume (Ang**3)        :     91.9693
<dSpData1D:S at geom step 0
  <sparsity:sparsity for geom step 0
    nrows_g=104 nrows=8 sparsity=.6977 nnzs=7546, refcount: 7>
  <dData1D:(new from dSpData1D) n=7546, refcount: 1>
refcount: 1>
new_DM -- step:     1
Initializing Density Matrix...

Attempting to read DM from file... Failed...
DM filled with atomic data:
<dSpData2D:DM initialized from atoms
  <sparsity:sparsity for geom step 0
    nrows_g=104 nrows=8 sparsity=.6977 nnzs=7546, refcount: 8>
  <dData2D:DM n=7546 m=1, refcount: 1>
refcount: 1>
No. of atoms with KB's overlaping orbs in proc 0. Max # of overlaps:      42     222

InitMesh: MESH = 32 x 100 x 54 = 172800
InitMesh: Mesh cutoff (required, used) =   400.000   403.125 Ry
New grid distribution [1]: sub = 2
New grid distribution [2]: sub = 2
New grid distribution [3]: sub = 2
Setting up quadratic distribution...

stepf: Fermi-Dirac step function

siesta: Program's energy decomposition (eV):
siesta: Ebs     =      -383.711052
siesta: Eions   =      2442.366599
siesta: Ena     =       599.465855
siesta: Ekin    =      1067.989259
siesta: Enl     =      -128.541362
siesta: Eso     =         0.000000
siesta: Edftu   =         0.000000
siesta: DEna    =       -79.225883
siesta: DUscf   =        11.124726
siesta: DUext   =         0.000000
siesta: Ex      =      -435.259442
siesta: Ec      =       -42.109348
siesta: Exc     =      -477.368789
siesta: EbV     =         0.000000
siesta: eta*DQ  =         0.000000
siesta: Emadel  =         0.000000
siesta: Emeta   =         0.000000
siesta: Emolmec =         0.000000
siesta: Ekinion =         0.000000
siesta: Eharris =     -1435.595886
siesta: Etot    =     -1448.922793
siesta: FreeEng =     -1448.922793

        iscf     Eharris(eV)        E_KS(eV)     FreeEng(eV)     dDmax    Ef(eV) dHmax(eV)
   scf:    1    -1435.595886    -1448.922793    -1448.922793  1.918404 -5.170090  6.537162
 IterSCF                          1       1.400  100.00
  compute_dm                      1       1.296   92.54
  setup_H                         1       0.102    7.31
  MIXER                           1       0.000    0.00
   scf:    2    -1449.954558    -1449.443864    -1449.443864  0.009109 -5.070248  6.153560
   scf:    3    -1453.434852    -1453.066561    -1453.066561  0.151128 -3.393509  0.771814
   scf:    4    -1453.004241    -1453.035826    -1453.035826  0.001339 -3.380423  0.839206
   scf:    5    -1453.283361    -1453.255570    -1453.255570  0.075179 -3.204812  0.464571
   scf:    6    -1453.275211    -1453.268473    -1453.268473  0.011002 -3.107565  0.118389
   scf:    7    -1453.269231    -1453.269081    -1453.269081  0.006447 -3.151092  0.058725
   scf:    8    -1453.269668    -1453.269472    -1453.269472  0.003270 -3.127625  0.036777
   scf:    9    -1453.269281    -1453.269430    -1453.269430  0.004532 -3.152924  0.024032
   scf:   10    -1453.269590    -1453.269529    -1453.269529  0.002483 -3.145100  0.007508
mix: Pulay -- inversion failed, > SVD [rank/size] 6 / 9
   scf:   11    -1453.269533    -1453.269532    -1453.269532  0.000372 -3.147708  0.000923
   scf:   12    -1453.269527    -1453.269530    -1453.269530  0.000154 -3.146529  0.004861
mix: Pulay -- inversion failed, > SVD [rank/size] 7 / 9
   scf:   13    -1453.269532    -1453.269532    -1453.269532  0.000108 -3.147802  0.000570
   scf:   14    -1453.269532    -1453.269532    -1453.269532  0.000059 -3.148017  0.000130
mix: Pulay -- inversion failed, > SVD [rank/size] 7 / 9
   scf:   15    -1453.269532    -1453.269532    -1453.269532  0.000012 -3.147970  0.000039
   scf:   16    -1453.269532    -1453.269532    -1453.269532  0.000015 -3.147966  0.000039
   scf:   17    -1453.269532    -1453.269532    -1453.269532  0.000002 -3.147990  0.000071

SCF Convergence by DM+H criterion
max |DM_out - DM_in|         :     0.0000024378
max |H_out - H_in|      (eV) :     0.0000707680
SCF cycle converged after 17 iterations

Using DM_out to compute the final energy and forces
No. of atoms with KB's overlaping orbs in proc 0. Max # of overlaps:      42     222

siesta: E_KS(eV) =            -1453.2695

siesta: E_KS - E_eggbox =     -1453.2695

siesta: Atomic forces (eV/Ang):
   Tot    0.001431    0.000021   -0.000917
   Max    1.992767
   Res    0.864612    sqrt( Sum f_i^2 / 3N )
   Max    1.992767    constrained

Stress tensor Voigt[x,y,z,yz,xz,xy] (kbar):       50.62       10.17      170.90       -0.86       -3.19        0.09
(Free)E + p*V (eV/cell)    -1457.7027
Target enthalpy (eV/cell)    -1453.2695

siesta: Program's energy decomposition (eV):
siesta: Ebs     =      -454.896705
siesta: Eions   =      2442.366599
siesta: Ena     =       599.465855
siesta: Ekin    =       989.195155
siesta: Enl     =      -105.515758
siesta: Eso     =         0.000000
siesta: Edftu   =         0.000000
siesta: DEna    =       -35.543303
siesta: DUscf   =         3.279428
siesta: DUext   =         0.000000
siesta: Ex      =      -419.677717
siesta: Ec      =       -42.106594
siesta: Exc     =      -461.784311
siesta: EbV     =         0.000000
siesta: eta*DQ  =         0.000000
siesta: Emadel  =         0.000000
siesta: Emeta   =         0.000000
siesta: Emolmec =         0.000000
siesta: Ekinion =         0.000000
siesta: Eharris =     -1453.269532
siesta: Etot    =     -1453.269532
siesta: FreeEng =     -1453.269532

siesta: Final energy (eV):
siesta:  Band Struct. =    -454.896705
siesta:       Kinetic =     989.195155
siesta:       Hartree =     623.254675
siesta:         Edftu =       0.000000
siesta:       Eso     =       0.000000
siesta:    Ext. field =       0.000000
siesta:         Exch. =    -419.677717
siesta:         Corr. =     -42.106594
siesta:     Bulk bias =       0.000000
siesta:   Exch.-corr. =    -461.784311
siesta:  Ion-electron =   -2165.638457
siesta:       Ion-ion =    -438.296594
siesta:       Ekinion =       0.000000
siesta: D3 dispersion =       0.000000
siesta:         Total =   -1453.269532
siesta:         Fermi =      -3.147990

siesta: Atomic forces (eV/Ang):
siesta:      1    0.041495    0.100539   -1.881001
siesta:      2   -0.501549   -0.003348   -1.741417
siesta:      3    0.239460    0.153341    0.695206
siesta:      4   -0.332553    0.025261    0.968040
siesta:      5   -0.273342   -0.267144    1.776816
siesta:      6    0.300577   -0.073428    1.992767
siesta:      7   -0.005940    0.009758   -0.592082
siesta:      8    0.533283    0.055043   -1.219246
siesta: ----------------------------------------
siesta:    Tot    0.001431    0.000021   -0.000917

siesta: Stress tensor (static) (eV/Ang**3):
siesta:     0.031594    0.000057   -0.001989
siesta:     0.000057    0.006345   -0.000537
siesta:    -0.001989   -0.000537    0.106669

siesta: Cell volume =         91.969293 Ang**3

siesta: Pressure (static):
siesta:                Solid            Molecule  Units
siesta:          -0.00052499         -0.00040970  Ry/Bohr**3
siesta:          -0.04820260         -0.03761675  eV/Ang**3
siesta:         -77.22908647        -60.26868361  kBar
(Free)E+ p_basis*V_orbitals  =       -1448.685518
(Free)Eharris+ p_basis*V_orbitals  =       -1448.685518

cite: Please see "aiida.bib" for an exhaustive BiBTeX file.
cite: Please clearly indicate Siesta version in published work: NO_VERSION_LABEL_AVAILABLE
cite: This calculation has made use of the following articles
cite: which are encouraged to be cited in a published work.
        Primary SIESTA paper
          DOI: www.doi.org/10.1088/0953-8984/14/11/302

 global_section                   1      25.282  100.00
  siesta                          1      25.282  100.00
   Setup                          1       0.136    0.54
    bands                         1       0.000    0.00
    KSV_init                      1       0.000    0.00
   IterGeom                       1      25.127   99.39
    geom_init                     1       0.941    3.72
     state_init                   1       0.129    0.51
      hsparse                     1       0.003    0.01
      overlap                     1       0.067    0.26
     Setup_H0                     1       0.707    2.80
      naefs                       1       0.001    0.00
      MolMec                      1       0.000    0.00
      kinefsm                     1       0.064    0.25
      nlefsm                      1       0.285    1.13
      DHSCF_Init                  1       0.357    1.41
       DHSCF1                     1       0.036    0.14
        INITMESH                  1       0.000    0.00
       DHSCF2                     1       0.321    1.27
        REMESH                    1       0.094    0.37
         INITMESH                 2       0.044    0.17
          SPLOAD                  2       0.044    0.17
        REORD                     2       0.000    0.00
        PHION                     1       0.159    0.63
        COMM_BSC                  1       0.000    0.00
        POISON                    1       0.001    0.01
         fft                      2       0.001    0.00
     setup_H                      1       0.104    0.41
      DHSCF                       1       0.104    0.41
       DHSCF3                     1       0.104    0.41
        rhoofd                    1       0.054    0.21
        COMM_BSC                  2       0.006    0.02
        POISON                    1       0.001    0.00
         fft                      2       0.001    0.00
        XC                        1       0.008    0.03
         COMM_BSC                 2       0.000    0.00
         GXC-CellXC               1       0.008    0.03
          gridxc@cellXC           1       0.008    0.03
        vmat                      1       0.035    0.14
    IterSCF                      17      23.870   94.42
     compute_dm                  17      22.121   87.50
      diagon                     17      22.120   87.49
       c-eigval                2244      10.522   41.62
        c-buildHS              2244       0.225    0.89
        cdiag                  2244      10.296   40.72
         cdiag1                2244       0.582    2.30
         cdiag2                2244       1.397    5.53
         cdiag3                2244       8.131   32.16
       c-eigvec                2244      10.984   43.45
        cdiag                  2244      10.759   42.56
         cdiag1                2244       0.586    2.32
         cdiag2                2244       1.404    5.55
         cdiag3                2244       8.139   32.19
         cdiag4                2244       0.400    1.58
       c-buildD                2244       0.604    2.39
     setup_H                     17       1.710    6.76
      DHSCF                      17       1.709    6.76
       DHSCF3                    17       1.709    6.76
        rhoofd                   17       0.881    3.48
        COMM_BSC                 34       0.096    0.38
        POISON                   17       0.017    0.07
         fft                     34       0.016    0.06
        XC                       17       0.145    0.57
         COMM_BSC                34       0.002    0.01
         GXC-CellXC              17       0.143    0.57
          gridxc@cellXC          17       0.143    0.57
        vmat                     17       0.569    2.25
     MIXER                       16       0.005    0.02
    PostSCF                       1       0.316    1.25
     naefs                        1       0.000    0.00
     kinefsm                      1       0.002    0.01
     nlefsm                       1       0.019    0.07
     DHSCF                        1       0.275    1.09
      DHSCF3                      1       0.107    0.42
       rhoofd                     1       0.048    0.19
       COMM_BSC                   2       0.007    0.03
       POISON                     1       0.001    0.00
        fft                       2       0.001    0.00
       XC                         1       0.007    0.03
        COMM_BSC                  2       0.000    0.00
        GXC-CellXC                1       0.007    0.03
         gridxc@cellXC            1       0.007    0.03
       vmat                       1       0.043    0.17
      DHSCF4                      1       0.168    0.67
       REORD                     10       0.000    0.00
       COMM_BSC                   2       0.004    0.02
       dfscf                      1       0.141    0.56
     overfsm                      1       0.002    0.01
     MolMec                       1       0.000    0.00
     writeHSX                     1       0.003    0.01
    state_analysis                1       0.001    0.00
    siesta_move                   1       0.000    0.00
   Analysis                       1       0.017    0.07
    optical                       1       0.000    0.00

>> End of run:  17-APR-2024  20:38:56
Job completed