Runtime information:
* Directory : /home/ICN2/jgarridoa/aiida_run/65/6b/0f63-62b8-4742-896e-518a103b1f17
>> Start of run:  14-APR-2024   4:35:31

reinit: Reading from standard input
reinit: Dumping input in INPUT_TMP.50009
************************** Dump of input data file ****************************
atomiccoordinatesformat Ang
cdfsave True
dminitspinaf False
dmmixingweight 0.025
dmmixscf1 True
dmnumberpulay 10
dmtolerance 1e-05
electronictemperature 50.000 K
geometrymustconverge T
latticeconstant 1.0 Ang
maxscfiterations 1000
meshcutoff 400 Ry
noncollinearspin False
numberofatoms 64
numberofspecies 3
savehs True
solutionmethod diagon
spinorbit False
spinpolarized False
systemlabel aiida
systemname aiida
usetreetimer T
writedmhsnetcdf True
writeorbmom True
xcauthors PBEsol
xcfunctional GGA
xmlwrite T
#
# -- Basis Set Info follows
#
PAO-BasisSize DZP
PAO-SplitNorm 0.15
PAO-EnergyShift 0.005 Ry
#
# -- Structural Info follows
#
%block chemicalspecieslabel
    1     5      B
    2     7      N
    3     6      C
%endblock chemicalspecieslabel
%block lattice-vectors
      8.4178000000       0.0000000000       0.0000000000
      0.0000000000       8.4178000000       0.0000000000
      0.0000000000       0.0000000000       8.4178000000
%endblock lattice-vectors
%block atomiccoordinatesandatomicspecies
      2.8953864880       3.9698344800       0.3082598360    1      B      1
      2.6798908080       3.4294117200       5.9610650700    1      B      2
      2.4264308500       6.0621628480       0.2619619360    1      B      3
      4.0449212560       7.7461437380       0.0867875180    1      B      4
      0.7630735700       2.8661767220       3.9656255800    1      B      5
      5.6445557900       0.9794952080       0.7149237540    1      B      6
      1.1337934820       2.6463037860       8.1979270640    1      B      7
      3.6427187720       0.8589523120       6.2297612460    1      B      8
      7.2457055280       4.2827241060       3.3184651160    1      B      9
      7.9642489360       0.9954890280       1.7820482600    1      B     10
      7.8829329880       7.5352778480       3.7875049320    1      B     11
      4.7681786320       7.0725513820       2.1158140300    1      B     12
      2.6121275180       5.7619841000       6.1508022820    1      B     13
      5.7867324320       0.0964679880       4.6437635480    1      B     14
      6.6262396260       3.3139195040       7.7396620320    1      B     15
      4.8542927260       2.1091639680       4.3202674940    1      B     16
      0.2937812200       7.0823160300       1.7379389880    1      B     17
      0.2623828260       0.0479814600       7.1933468120    1      B     18
      2.8483309860       6.4695001900       4.0422275600    1      B     19
      5.7847963380       6.2579608760       0.2198729360    1      B     20
      4.7579089160       3.0026292600       0.1533723160    1      B     21
      3.2507860040       0.7413556460       1.8406361480    1      B     22
      0.5438740580       4.4858456200       5.3998503440    1      B     23
      6.6078888220       7.3082497820       6.6248927780    1      B     24
      7.9520431260       4.9684380940       0.6602922320    1      B     25
      1.1053413180       0.4942932160       3.3321019520    1      B     26
      4.4055398080       5.1404979260       7.5647401480    1      B     27
      0.7329378460       5.7033962120       3.6343009720    1      B     28
      0.3716458700       6.6326371540       7.9959840420    2      N     29
      4.4867715780       7.2244926720       6.2728603820    2      N     30
      5.5557480000       0.6404262240       7.2086672080    2      N     31
      8.2097961620       0.3745921000       5.3304876720    2      N     32
      4.5206953120       2.8079255460       6.3836386300    2      N     33
      1.6099884280       1.6863378740       6.4309466660    2      N     34
      0.5664337620       6.4065350460       5.7009550500    2      N     35
      1.0595484860       4.4770911080       7.4539619000    2      N     36
      7.7007717960       1.5146989320       8.1108028340    2      N     37
      3.0912686940       2.7613751120       2.1967932660    2      N     38
      3.3083637560       1.5993820000       8.3405245960    2      N     39
      1.1958326680       4.5802091580       2.0589097020    2      N     40
      7.2400656020       3.2405162880       1.4813644440    2      N     41
      5.4144131380       4.4959469800       1.3471847120    2      N     42
      2.0903922740       8.2243589560       5.1823343920    2      N     43
      2.6439468020       2.0265853500       4.2067113720    2      N     44
      6.3408762060       0.0408263300       2.7037973600    2      N     45
      2.1825671840       7.1216271560       2.0809643380    2      N     46
      6.8220376540       6.0732743440       2.2917460500    2      N     47
      4.9727311720       6.5000568040       4.0184051860    2      N     48
      7.0215395140       7.8154222320       0.4269508160    2      N     49
      5.2362924900       2.0440943740       2.3484820220    2      N     50
      3.5333715500       5.3030456440       2.0143795400    2      N     51
      7.0009159040       5.1249249960       6.9978013180    2      N     52
      2.3291210820       7.5965594320       7.2941078780    2      N     53
      7.4342642480       1.9924090820       3.6069431220    2      N     54
      1.5046817500       0.3745921000       0.5494298060    2      N     55
      4.6012536580       5.0106954500       5.6475020200    2      N     56
      6.2228586500       3.7635142020       5.1037963180    3      C     57
      8.1870681020       2.8516981060       6.2176396140    3      C     58
      5.0036244980       4.1392847940       3.4059260580    3      C     59
      3.7354829280       0.0888919680       3.7096402820    3      C     60
      6.5838139140       1.7374339200       5.7850488720    3      C     61
      6.8036868500       5.9571087040       4.9237395760    3      C     62
      2.9506914340       4.3569691020       4.0295166820    3      C     63
      1.0621580040       2.5034537200       1.7261540680    3      C     64
%endblock atomiccoordinatesandatomicspecies
#
# -- K-points Info follows
#
%block kgrid_monkhorst_pack
     8      0      0       0.0000000000
     0      8      0       0.0000000000
     0      0      8       0.0000000000
%endblock kgrid_monkhorst_pack
#
#
maxwalltime 7200000
************************** End of input data file *****************************

reinit: -----------------------------------------------------------------------
reinit: System Name: aiida
reinit: -----------------------------------------------------------------------
reinit: System Label: aiida
reinit: -----------------------------------------------------------------------

initatom: Reading input for the pseudopotentials and atomic orbitals ----------
Species number:   1 Atomic number:    5 Label: B
Species number:   2 Atomic number:    7 Label: N
Species number:   3 Atomic number:    6 Label: C

---- Processing specs for species: B
Ground state valence configuration:   2s02  2p01
Reading pseudopotential information in PSML from:
  B.psml
PSML file version: 1.1
GGA--PBEsol XC_GGA_X_PBE_SOL--XC_GGA_C_PBE_SOL ps
PSML uuid: 4c4355a0-1d5f-11e8-6182-f22cff9f01b0

---- Processing specs for species: N
Ground state valence configuration:   2s02  2p03
Reading pseudopotential information in PSML from:
  N.psml
PSML file version: 1.1
GGA--PBEsol XC_GGA_X_PBE_SOL--XC_GGA_C_PBE_SOL ps
PSML uuid: 56b43770-1d5f-11e8-525f-e1e3c77dc801

---- Processing specs for species: C
Ground state valence configuration:   2s02  2p02
Reading pseudopotential information in PSML from:
  C.psml
PSML file version: 1.1
GGA--PBEsol XC_GGA_X_PBE_SOL--XC_GGA_C_PBE_SOL ps
PSML uuid: 51a02af0-1d5f-11e8-49c3-12b9ebd99919

---- Pseudopotential check for B

Pseudized shells:
2s( 2.00) rc: 1.21
2p( 1.00) rc: 1.21
Valence configuration for ps generation: 2s:2p: Total charge:   3.000000

[...]

Pseudized shells:
2s( 2.00) rc: 1.21
2p( 3.00) rc: 1.36
Valence configuration for ps generation: 2s:2p: Total charge:   5.000000

---- Pseudopotential check for C

Pseudized shells:
2s( 2.00) rc: 1.20
2p( 2.00) rc: 1.26
Valence configuration for ps generation: 2s:2p: Total charge:   4.000000
For B, standard SIESTA heuristics set lmxkb to 3
 (one more than the basis l, including polarization orbitals).
Use PS.lmax or PS.KBprojectors blocks to override.
For N, standard SIESTA heuristics set lmxkb to 3
 (one more than the basis l, including polarization orbitals).
Use PS.lmax or PS.KBprojectors blocks to override.
For C, standard SIESTA heuristics set lmxkb to 3
 (one more than the basis l, including polarization orbitals).
Use PS.lmax or PS.KBprojectors blocks to override.
B pseudopotential only contains V_ls up to l=1 -- lmxkb reset.
N pseudopotential only contains V_ls up to l=1 -- lmxkb reset.
C pseudopotential only contains V_ls up to l=1 -- lmxkb reset.

<basis_specs>
B                    Z=   5    Mass=  10.810        Charge= 0.17977+309
Lmxo=2 Lmxkb= 1    BasisType=split      Semic=F
L=0  Nsemic=0  Cnfigmx=2
          i=1  nzeta=2  polorb=0  (2s)
            splnorm:   0.15000
               vcte:    40.000
               rinn:  -0.90000
               qcoe:    0.0000
               qyuk:    0.0000
               qwid:   0.10000E-01
                rcs:    0.0000      0.0000
            lambdas:    1.0000      1.0000
L=1  Nsemic=0  Cnfigmx=2
          i=1  nzeta=2  polorb=1  (2p)  (to be polarized perturbatively)
            splnorm:   0.15000
               vcte:    40.000
               rinn:  -0.90000
               qcoe:    0.0000
               qyuk:    0.0000
               qwid:   0.10000E-01
                rcs:    0.0000      0.0000
            lambdas:    1.0000      1.0000
L=2  Nsemic=0  Cnfigmx=3
          i=1  nzeta=0  polorb=0  (3d)  (perturbative polarization orbital) (from 2p)
L=0  Nkbl=1  erefs: 0.17977+309
L=1  Nkbl=1  erefs: 0.17977+309
</basis_specs>

Using PAO.SplitTailNorm
atom: Called for B                     (Z =   5)
NOTE: B pseudopotential has channels up to l= 1
NOTE: PAOs with higher l will be generated with V_local
Maximum radius (at nrval) set to   50.00000 8518

read_vps: Pseudopotential generation method:
read_vps: ONCVPSP-3.Hamann's oncvpsp
Valence charge in pseudo generation:    3.00000

read_vps: Pseudopotential includes a core correction:
read_vps: Pseudo-core for xc-correction

xc_check: Exchange-correlation functional:
xc_check: GGA PBEsol
Got Vlocal (oncv-fit) from psml data
Choosing vlocal chloc cutoff:  3.201794
qtot up to nchloc:    3.00023194
atom: Maximum radius for chlocal:    3.20179
atom: Maximum radius for r*vlocal+2*Zval:    3.20179
Reading KB projs from B psml data
Using scalar-relativistic projectors in PSML file

PSML: Kleinman-Bylander projectors:
   l= 0   rc=  1.223468   Ekb= 16.933205
   l= 0   rc=  1.223468   Ekb=  2.495260
   l= 1   rc=  1.223468   Ekb= -7.218359
   l= 1   rc=  1.223468   Ekb= -1.645242

PSML: Total number of  Kleinman-Bylander projectors:   8
atom: -------------------------------------------------------------------------

[...]
  <dData1D:(new from dSpData1D) n=60922, refcount: 1>
refcount: 1>
new_DM -- step:     1
Initializing Density Matrix...

Attempting to read DM from file... Failed...
DM filled with atomic data:
<dSpData2D:DM initialized from atoms
  <sparsity:sparsity for geom step 0
    nrows_g=832 nrows=35 sparsity=.0880 nnzs=60922, refcount: 8>
  <dData2D:DM n=60922 m=1, refcount: 1>
refcount: 1>
No. of atoms with KB's overlaping orbs in proc 0. Max # of overlaps:      83     331

InitMesh: MESH = 108 x 108 x 108 = 1259712
InitMesh: Mesh cutoff (required, used) =   400.000   454.938 Ry
New grid distribution [1]: sub = 2
New grid distribution [2]: sub = 2
New grid distribution [3]: sub = 2
Setting up quadratic distribution...

stepf: Fermi-Dirac step function

siesta: Program's energy decomposition (eV):
siesta: Ebs     =     -2806.374933
siesta: Eions   =     19355.303605
siesta: Ena     =      5049.749598
siesta: Ekin    =      6750.738828
siesta: Enl     =      -405.703283
siesta: Eso     =         0.000000
siesta: Edftu   =         0.000000
siesta: DEna    =       123.418822
siesta: DUscf   =        28.485460
siesta: DUext   =         0.000000
siesta: Ex      =     -3074.870453
siesta: Ec      =      -333.224641
siesta: Exc     =     -3408.095094
siesta: EbV     =         0.000000
siesta: eta*DQ  =         0.000000
siesta: Emadel  =         0.000000
siesta: Emeta   =         0.000000
siesta: Emolmec =         0.000000
siesta: Ekinion =         0.000000
siesta: Eharris =    -11182.920812
siesta: Etot    =    -11216.709275
siesta: FreeEng =    -11216.710861

        iscf     Eharris(eV)        E_KS(eV)     FreeEng(eV)     dDmax    Ef(eV) dHmax(eV)
   scf:    1   -11182.920812   -11216.709275   -11216.710861  1.617989 -5.415931  6.880086
 IterSCF                          1     114.255  100.00
  compute_dm                      1     113.324   99.18
  setup_H                         1       0.914    0.80
  MIXER                           1       0.000    0.00
   scf:    2   -11227.637472   -11222.605838   -11222.607418  0.056617 -5.393309  4.682262
   scf:    3   -11233.764738   -11229.482579   -11229.484330  0.104557 -5.347900  2.504992
   scf:    4   -11233.903597   -11232.414039   -11232.415789  0.076940 -5.311118  1.063038
   scf:    5   -11233.067398   -11232.794399   -11232.796131  0.023256 -5.305214  0.946780
   scf:    6   -11233.197701   -11233.039159   -11233.040916  0.027537 -5.314491  0.657742
   scf:    7   -11233.240991   -11233.152526   -11233.154290  0.014833 -5.324373  0.408616
   scf:    8   -11233.277982   -11233.220040   -11233.221819  0.010086 -5.342618  0.250887
   scf:    9   -11233.305669   -11233.266421   -11233.268214  0.011555 -5.361759  0.227045
   scf:   10   -11233.339201   -11233.306176   -11233.307980  0.014626 -5.393118  0.163132
   scf:   11   -11233.332913   -11233.321071   -11233.322884  0.010862 -5.414320  0.110384
   scf:   12   -11233.325194   -11233.324349   -11233.326160  0.003530 -5.421234  0.079608
   scf:   13   -11233.329343   -11233.327336   -11233.329152  0.004663 -5.428451  0.042734
   scf:   14   -11233.329001   -11233.328261   -11233.330079  0.001971 -5.431994  0.026079
   scf:   15   -11233.328796   -11233.328547   -11233.330366  0.000810 -5.433492  0.018698
   scf:   16   -11233.329031   -11233.328808   -11233.330627  0.000837 -5.434890  0.013642
   scf:   17   -11233.329162   -11233.329015   -11233.330835  0.000868 -5.436114  0.009356
   scf:   18   -11233.329068   -11233.329042   -11233.330862  0.000136 -5.436265  0.009260
   scf:   19   -11233.329156   -11233.329107   -11233.330926  0.000550 -5.436839  0.005640
   scf:   20   -11233.329138   -11233.329124   -11233.330943  0.000332 -5.437329  0.002986
   scf:   21   -11233.329133   -11233.329129   -11233.330948  0.000116 -5.437197  0.002763
   scf:   22   -11233.329132   -11233.329131   -11233.330950  0.000078 -5.437063  0.002506
   scf:   23   -11233.329139   -11233.329135   -11233.330954  0.000100 -5.437128  0.001546
   scf:   24   -11233.329140   -11233.329138   -11233.330956  0.000067 -5.437204  0.001303
   scf:   25   -11233.329144   -11233.329141   -11233.330959  0.000120 -5.437338  0.001003
   scf:   26   -11233.329142   -11233.329142   -11233.330960  0.000052 -5.437394  0.000912
   scf:   27   -11233.329143   -11233.329142   -11233.330961  0.000075 -5.437464  0.000620
   scf:   28   -11233.329143   -11233.329143   -11233.330961  0.000024 -5.437467  0.000392
   scf:   29   -11233.329143   -11233.329143   -11233.330961  0.000020 -5.437467  0.000341
   scf:   30   -11233.329143   -11233.329143   -11233.330961  0.000017 -5.437467  0.000333
   scf:   31   -11233.329143   -11233.329143   -11233.330961  0.000030 -5.437455  0.000269
   scf:   32   -11233.329143   -11233.329143   -11233.330961  0.000011 -5.437424  0.000211
   scf:   33   -11233.329143   -11233.329143   -11233.330961  0.000004 -5.437412  0.000167

SCF Convergence by DM+H criterion
max |DM_out - DM_in|         :     0.0000043929
max |H_out - H_in|      (eV) :     0.0001670800
SCF cycle converged after 33 iterations

Using DM_out to compute the final energy and forces
No. of atoms with KB's overlaping orbs in proc 0. Max # of overlaps:      83     331

siesta: E_KS(eV) =           -11233.3291

siesta: E_KS - E_eggbox =    -11233.3291

siesta: Atomic forces (eV/Ang):
   Tot   -0.001463   -0.003801    0.000053
   Max    4.347338
   Res    1.223998    sqrt( Sum f_i^2 / 3N )
   Max    4.347338    constrained

Stress tensor Voigt[x,y,z,yz,xz,xy] (kbar):      400.66      437.37      481.44       15.61       24.50        8.23
(Free)E + p*V (eV/cell)   -11397.0745
Target enthalpy (eV/cell)   -11233.3310

siesta: Program's energy decomposition (eV):
siesta: Ebs     =     -3007.857580
siesta: Eions   =     19355.303605
siesta: Ena     =      5049.749598
siesta: Ekin    =      6594.253598
siesta: Enl     =      -327.851763
siesta: Eso     =         0.000000
siesta: Edftu   =         0.000000
siesta: DEna    =       176.598065
siesta: DUscf   =         5.495546
siesta: DUext   =         0.000000
siesta: Ex      =     -3043.420816
siesta: Ec      =      -332.849767
siesta: Exc     =     -3376.270582
siesta: EbV     =         0.000000
siesta: eta*DQ  =         0.000000
siesta: Emadel  =         0.000000
siesta: Emeta   =         0.000000
siesta: Emolmec =         0.000000
siesta: Ekinion =         0.000000
siesta: Eharris =    -11233.329143
siesta: Etot    =    -11233.329143
siesta: FreeEng =    -11233.330961

siesta: Final energy (eV):
siesta:  Band Struct. =   -3007.857580
siesta:       Kinetic =    6594.253598
siesta:       Hartree =    1434.038141
siesta:         Edftu =       0.000000
siesta:       Eso     =       0.000000
siesta:    Ext. field =       0.000000
siesta:         Exch. =   -3043.420816
siesta:         Corr. =    -332.849767
siesta:     Bulk bias =       0.000000
siesta:   Exch.-corr. =   -3376.270582
siesta:  Ion-electron =   -8692.176318
siesta:       Ion-ion =   -7193.173983
siesta:       Ekinion =       0.000000
siesta: D3 dispersion =       0.000000
siesta:         Total =  -11233.329143
siesta:         Fermi =      -5.437412

siesta: Atomic forces (eV/Ang):
siesta:      1    0.833478    1.089677    0.460042
siesta:      2    1.187909   -1.468084   -1.057334
siesta:      3   -0.036019    0.601922   -0.011158
siesta:      4   -0.063999   -0.294188   -0.317077
siesta:      5   -1.014177   -0.955377   -0.251295
siesta:      6    0.282171   -0.208334   -1.415386
siesta:      7    0.207393   -0.209740   -0.093433
siesta:      8    0.043365   -0.247113    1.479755
siesta:      9   -1.227254    0.061303   -1.008930
siesta:     10   -0.058726    0.729400    0.838382
siesta:     11   -0.132210    0.199479    0.326275
siesta:     12    1.293050   -1.055797    1.173600
siesta:     13   -0.166786    0.970262   -0.497976
siesta:     14   -0.669511    0.301316   -2.082453
siesta:     15    0.605651    0.267846    0.804605
siesta:     16    0.272752   -0.158198   -0.601060
siesta:     17    0.909124    0.334519   -0.107676
siesta:     18   -0.683189    0.712891    0.505302
siesta:     19    0.558401    0.166497    0.074070
siesta:     20   -0.127385   -0.177581    0.482209
siesta:     21   -0.183775    0.850087   -0.799638
siesta:     22   -0.256149    1.050114   -0.107215
siesta:     23   -0.047230    0.181685    1.143493
siesta:     24   -2.183693    0.424635   -0.243473
siesta:     25    0.614014   -0.698979    0.598087
siesta:     26   -0.442655   -0.410936    1.143179
siesta:     27    0.177905    0.382974   -1.170973
siesta:     28    0.030978   -0.866885   -0.669362
siesta:     29    0.566042    0.756036    1.487895
siesta:     30    1.323569    1.301622    0.806424
siesta:     31    0.173022   -0.779740    0.387918
siesta:     32   -1.754266   -1.400011    0.950380
siesta:     33   -3.854422   -0.453759   -1.423009
siesta:     34   -0.389004    3.483425    1.872631
siesta:     35    1.178571   -4.347338   -2.079462
siesta:     36    1.027912   -2.382795    1.298289
siesta:     37    1.836399   -0.116303    0.783890
siesta:     38   -1.398807   -2.996609   -0.186753
siesta:     39    1.383580    0.215338    0.915735
siesta:     40   -1.975397    0.796638    0.961853
siesta:     41    0.623658    3.500657   -0.002988
siesta:     42   -1.326709   -0.734006   -0.203507
siesta:     43    2.265825    0.026898   -2.754139
siesta:     44   -1.206029    1.388147   -1.491979
siesta:     45    0.580620   -0.246584    1.567847
siesta:     46   -2.339776   -0.709291   -0.532377
siesta:     47    1.732548   -0.979666   -0.997530
siesta:     48   -1.554031    1.179875   -1.758005
siesta:     49   -2.029380   -1.185035   -0.619428
siesta:     50   -0.807490   -1.091869   -0.173317
siesta:     51    0.950458    0.960534   -1.412780
siesta:     52   -1.133674   -1.358205    2.488208
siesta:     53    1.865215   -2.023077    2.365368
siesta:     54    3.701674    1.780562   -0.295200
siesta:     55   -0.607845    0.084341    0.449847
siesta:     56   -0.274979   -0.520150    3.062838
siesta:     57   -0.882612    1.154323   -1.868238
siesta:     58   -0.463761    0.219545   -0.366191
siesta:     59    0.003615   -0.560788    0.497705
siesta:     60   -0.171266    0.432771   -0.553462
siesta:     61    1.250943   -0.990435   -1.410449
siesta:     62   -0.071178    1.510773    0.467420
siesta:     63    1.508661    1.121637    0.531589
siesta:     64    0.543419    1.385344   -1.361532
siesta: ----------------------------------------
siesta:    Tot   -0.001463   -0.003801    0.000053

siesta: Stress tensor (static) (eV/Ang**3):
siesta:     0.250072    0.005137    0.015293
siesta:     0.005137    0.272987    0.009744
siesta:     0.015292    0.009744    0.300490

siesta: Cell volume =        596.479894 Ang**3

siesta: Pressure (static):
siesta:                Solid            Molecule  Units
siesta:          -0.00298986         -0.00301854  Ry/Bohr**3
siesta:          -0.27451649         -0.27714967  eV/Ang**3
siesta:        -439.82390792       -444.04273278  kBar
(Free)E+ p_basis*V_orbitals  =      -11197.315040
(Free)Eharris+ p_basis*V_orbitals  =      -11197.315040

cite: Please see "aiida.bib" for an exhaustive BiBTeX file.
cite: Please clearly indicate Siesta version in published work: NO_VERSION_LABEL_AVAILABLE
cite: This calculation has made use of the following articles
cite: which are encouraged to be cited in a published work.
        Primary SIESTA paper
          DOI: www.doi.org/10.1088/0953-8984/14/11/302

 global_section                   1    3805.536  100.00
  siesta                          1    3805.536  100.00
   Setup                          1       0.220    0.01
    bands                         1       0.000    0.00
    KSV_init                      1       0.000    0.00
   IterGeom                       1    3805.059   99.99
    geom_init                     1       5.894    0.15
     state_init                   1       0.945    0.02
      hsparse                     1       0.023    0.00
      overlap                     1       0.297    0.01
     Setup_H0                     1       4.027    0.11
      naefs                       1       0.003    0.00
      MolMec                      1       0.000    0.00
      kinefsm                     1       0.293    0.01
      nlefsm                      1       1.435    0.04
      DHSCF_Init                  1       2.296    0.06
       DHSCF1                     1       0.043    0.00
        INITMESH                  1       0.000    0.00
       DHSCF2                     1       2.253    0.06
        REMESH                    1       1.347    0.04
         INITMESH                 2       1.176    0.03
          SPLOAD                  2       1.176    0.03
        REORD                     2       0.000    0.00
        PHION                     1       0.716    0.02
        COMM_BSC                  1       0.001    0.00
        POISON                    1       0.007    0.00
         fft                      2       0.006    0.00
     setup_H                      1       0.922    0.02
      DHSCF                       1       0.921    0.02
       DHSCF3                     1       0.921    0.02
        rhoofd                    1       0.552    0.01
        COMM_BSC                  2       0.001    0.00
        POISON                    1       0.006    0.00
         fft                      2       0.006    0.00
        XC                        1       0.060    0.00
         COMM_BSC                 2       0.001    0.00
         GXC-CellXC               1       0.059    0.00
          gridxc@cellXC           1       0.059    0.00
        vmat                      1       0.301    0.01
    IterSCF                      33    3794.848   99.72
     compute_dm                  33    3763.433   98.89
      diagon                     33    3763.416   98.89
       c-eigval                9768    1758.096   46.20
        c-buildHS              9768       8.292    0.22
        cdiag                  9768    1749.789   45.98
         cdiag1                9768      98.837    2.60
         cdiag2                9768     343.822    9.03
         cdiag3                9768    1287.617   33.84
       c-eigvec                9768    1819.093   47.80
        cdiag                  9768    1811.301   47.60
         cdiag1                9768      99.049    2.60
         cdiag2                9768     344.390    9.05
         cdiag3                9768    1288.072   33.85
         cdiag4                9768      65.939    1.73
       c-buildD                9768     184.877    4.86
     setup_H                     33      30.657    0.81
      DHSCF                      33      30.635    0.80
       DHSCF3                    33      30.634    0.80
        rhoofd                   33      16.366    0.43
        COMM_BSC                 66       0.928    0.02
        POISON                   33       1.232    0.03
         fft                     66       1.214    0.03
        XC                       33       1.822    0.05
         COMM_BSC                66       0.023    0.00
         GXC-CellXC              33       1.798    0.05
          gridxc@cellXC          33       1.798    0.05
        vmat                     33      10.240    0.27
     MIXER                       32       0.122    0.00
    PostSCF                       1       4.308    0.11
     naefs                        1       0.002    0.00
     kinefsm                      1       0.017    0.00
     nlefsm                       1       0.084    0.00
     DHSCF                        1       2.989    0.08
      DHSCF3                      1       0.950    0.02
       rhoofd                     1       0.481    0.01
       COMM_BSC                   2       0.052    0.00
       POISON                     1       0.069    0.00
        fft                       2       0.069    0.00
       XC                         1       0.049    0.00
        COMM_BSC                  2       0.001    0.00
        GXC-CellXC                1       0.048    0.00
         gridxc@cellXC            1       0.048    0.00
       vmat                       1       0.298    0.01
      DHSCF4                      1       2.038    0.05
       REORD                     10       0.001    0.00
       COMM_BSC                   2       0.001    0.00
       dfscf                      1       1.930    0.05
     overfsm                      1       0.016    0.00
     MolMec                       1       0.000    0.00
     writeHSX                     1       0.028    0.00
    state_analysis                1       0.001    0.00
    siesta_move                   1       0.000    0.00
   Analysis                       1       0.253    0.01
    optical                       1       0.000    0.00

>> End of run:  14-APR-2024   5:38:57
Job completed