Runtime information:
* Directory : /home/ICN2/jgarridoa/aiida_run/f8/8d/97b7-2c95-4a76-a9b9-a31a957210a1
>> Start of run:  13-APR-2024   5:49:12

reinit: Reading from standard input
reinit: Dumping input in INPUT_TMP.70784
************************** Dump of input data file ****************************
atomiccoordinatesformat Ang
cdfsave True
dminitspinaf False
dmmixingweight 0.025
dmmixscf1 True
dmnumberpulay 10
dmtolerance 1e-05
electronictemperature 50.000 K
geometrymustconverge T
latticeconstant 1.0 Ang
maxscfiterations 1000
meshcutoff 400 Ry
noncollinearspin False
numberofatoms 8
numberofspecies 2
savehs True
solutionmethod diagon
spinorbit False
spinpolarized False
systemlabel aiida
systemname aiida
usetreetimer T
writedmhsnetcdf True
writeorbmom True
xcauthors PBEsol
xcfunctional GGA
xmlwrite T
#
# -- Basis Set Info follows
#
PAO-BasisSize DZP
PAO-SplitNorm 0.15
PAO-EnergyShift 0.005 Ry
#
# -- Structural Info follows
#
%block chemicalspecieslabel
    1     7      N
    2     5      B
%endblock chemicalspecieslabel
%block lattice-vectors
      3.6720100000       0.0000000000       0.0000000000
      0.0000000000       3.7362800000       0.0000000000
      0.0000000000       0.0000000000       3.7475300000
%endblock lattice-vectors
%block atomiccoordinatesandatomicspecies
      3.6496841792       3.7094161468       3.7123032180    1      N      1
      3.6502717008       1.8056320356       1.8057848058    1      N      2
      1.7977426558       3.6980204928       1.7977276163    1      N      3
      1.8036178718       1.8090694132       3.7246700670    1      N      4
      0.8795198352       0.8795203120       0.8795452910    2      B      5
      0.8797768759       2.7157151180       2.7157225651    2      B      6
      2.7315347988       0.8804543820       2.7279395129    2      B      7
      2.7188296442       2.7187788676       0.8992947741    2      B      8
%endblock atomiccoordinatesandatomicspecies
#
# -- K-points Info follows
#
%block kgrid_monkhorst_pack
     6      0      0       0.0000000000
     0      6      0       0.0000000000
     0      0      6       0.0000000000
%endblock kgrid_monkhorst_pack
#
#
maxwalltime 7200000
************************** End of input data file *****************************

reinit: -----------------------------------------------------------------------
reinit: System Name: aiida
reinit: -----------------------------------------------------------------------
reinit: System Label: aiida
reinit: -----------------------------------------------------------------------

initatom: Reading input for the pseudopotentials and atomic orbitals ----------
Species number:   1 Atomic number:    7 Label: N
Species number:   2 Atomic number:    5 Label: B

---- Processing specs for species: N
Ground state valence configuration:   2s02  2p03
Reading pseudopotential information in PSML from:
  N.psml
PSML file version: 1.1
GGA--PBEsol XC_GGA_X_PBE_SOL--XC_GGA_C_PBE_SOL ps
PSML uuid: 56b43770-1d5f-11e8-525f-e1e3c77dc801

---- Processing specs for species: B
Ground state valence configuration:   2s02  2p01
Reading pseudopotential information in PSML from:
  B.psml
PSML file version: 1.1
GGA--PBEsol XC_GGA_X_PBE_SOL--XC_GGA_C_PBE_SOL ps
PSML uuid: 4c4355a0-1d5f-11e8-6182-f22cff9f01b0

---- Pseudopotential check for N

Pseudized shells:
2s( 2.00) rc: 1.21
2p( 3.00) rc: 1.36
Valence configuration for ps generation: 2s:2p: Total charge:   5.000000

---- Pseudopotential check for B

Pseudized shells:
2s( 2.00) rc: 1.21
2p( 1.00) rc: 1.21
Valence configuration for ps generation: 2s:2p: Total charge:   3.000000
For N, standard SIESTA heuristics set lmxkb to 3
 (one more than the basis l, including polarization orbitals).
Use PS.lmax or PS.KBprojectors blocks to override.
For B, standard SIESTA heuristics set lmxkb to 3
 (one more than the basis l, including polarization orbitals).
Use PS.lmax or PS.KBprojectors blocks to override.
N pseudopotential only contains V_ls up to l=1 -- lmxkb reset.
B pseudopotential only contains V_ls up to l=1 -- lmxkb reset.

<basis_specs>
N                    Z=   7    Mass=  14.007        Charge= 0.17977+309
Lmxo=2 Lmxkb= 1    BasisType=split      Semic=F
L=0  Nsemic=0  Cnfigmx=2
          i=1  nzeta=2  polorb=0  (2s)
            splnorm:   0.15000
               vcte:    40.000
               rinn:  -0.90000
               qcoe:    0.0000
               qyuk:    0.0000
               qwid:   0.10000E-01
                rcs:    0.0000      0.0000
            lambdas:    1.0000      1.0000
L=1  Nsemic=0  Cnfigmx=2
          i=1  nzeta=2  polorb=1  (2p)  (to be polarized perturbatively)
            splnorm:   0.15000
               vcte:    40.000
               rinn:  -0.90000
               qcoe:    0.0000
               qyuk:    0.0000
               qwid:   0.10000E-01
                rcs:    0.0000      0.0000
            lambdas:    1.0000      1.0000
L=2  Nsemic=0  Cnfigmx=3
          i=1  nzeta=0  polorb=0  (3d)  (perturbative polarization orbital) (from 2p)
L=0  Nkbl=1  erefs: 0.17977+309
L=1  Nkbl=1  erefs: 0.17977+309
</basis_specs>

Using PAO.SplitTailNorm
atom: Called for N                     (Z =   7)
NOTE: N pseudopotential has channels up to l= 1
NOTE: PAOs with higher l will be generated with V_local
Maximum radius (at nrval) set to   50.00000 8518

read_vps: Pseudopotential generation method:
read_vps: ONCVPSP-3.Hamann's oncvpsp
Valence charge in pseudo generation:    5.00000

read_vps: Pseudopotential includes a core correction:
read_vps: Pseudo-core for xc-correction

xc_check: Exchange-correlation functional:
xc_check: GGA PBEsol
Got Vlocal (oncv-fit) from psml data
Choosing vlocal chloc cutoff:  6.038618
qtot up to nchloc:    4.99997633
atom: Maximum radius for chlocal:    6.03862
atom: Maximum radius for r*vlocal+2*Zval:    6.03862
Reading KB projs from N psml data
Using scalar-relativistic projectors in PSML file

PSML: Kleinman-Bylander projectors:
   l= 0   rc=  1.214864   Ekb= 14.928379
   l= 0   rc=  1.221004   Ekb=  1.251736
   l= 1   rc=  1.375180   Ekb= -8.619428
   l= 1   rc=  1.375180   Ekb= -2.025883

PSML: Total number of  Kleinman-Bylander projectors:   8
atom: -------------------------------------------------------------------------

atom: SANKEY-TYPE ORBITALS:
atom: Selected multiple-zeta basis: split

SPLIT: Orbitals with angular momentum L= 0

SPLIT: Basis orbitals for state 2s

SPLIT: PAO cut-off radius determined from an
SPLIT: energy shift=  0.005000 Ry
Split based on tail norm

   izeta = 1
                 lambda =    1.000000
                     rc =    4.265195
                 energy =   -1.350827
                kinetic =    1.238925
    potential(screened) =   -2.589752
       potential(ionic) =   -8.091187

   izeta = 2
                 rmatch =    2.696970
              splitnorm =    0.150000
                 energy =   -1.041987
                kinetic =    2.172223
    potential(screened) =   -3.214210
       potential(ionic) =   -9.191634

[...]

SPLIT: Basis orbitals for state 2p

[...]

   izeta = 2
                 rmatch =    3.312873
              splitnorm =    0.150000
                 energy =   -0.376057
                kinetic =    4.835938
    potential(screened) =   -5.211995
       potential(ionic) =  -11.044105
*Note: V_local used for l= 2

** Using vlocal for PAOs with L= 2

POLgen: Perturbative polarization orbital with L=  2

POLgen: Polarization orbital for state 2p
*Note: V_local used for lpol= 2

** Using vlocal for PAOs with L= 2
Split based on tail norm

   izeta = 1
                     rc =    5.253677
                 energy =    1.558482
                kinetic =    2.921564
    potential(screened) =   -1.363082
       potential(ionic) =   -5.578203
atom: Total number of Sankey-type orbitals: 13

atm_pop: Valence configuration (for local Pseudopot. screening):
 2s( 2.00)
 2p( 3.00)
 3d( 0.00)
Vna: chval, zval:    5.00000   5.00000

Vna:  Cut-off radius for the neutral-atom potential:   5.253677
comcore: Pseudo-core radius Rcore=  1.572221

atom: _________________________________________________________________________

<basis_specs>
B                    Z=   5    Mass=  10.810        Charge= 0.17977+309
Lmxo=2 Lmxkb= 1    BasisType=split      Semic=F
L=0  Nsemic=0  Cnfigmx=2
          i=1  nzeta=2  polorb=0  (2s)
            splnorm:   0.15000
               vcte:    40.000
               rinn:  -0.90000
               qcoe:    0.0000
               qyuk:    0.0000
               qwid:   0.10000E-01
                rcs:    0.0000      0.0000
            lambdas:    1.0000      1.0000
L=1  Nsemic=0  Cnfigmx=2
          i=1  nzeta=2  polorb=1  (2p)  (to be polarized perturbatively)
            splnorm:   0.15000
               vcte:    40.000
               rinn:  -0.90000
               qcoe:    0.0000
               qyuk:    0.0000
               qwid:   0.10000E-01
                rcs:    0.0000      0.0000
            lambdas:    1.0000      1.0000
L=2  Nsemic=0  Cnfigmx=3
          i=1  nzeta=0  polorb=0  (3d)  (perturbative polarization orbital) (from 2p)
L=0  Nkbl=1  erefs: 0.17977+309
L=1  Nkbl=1  erefs: 0.17977+309
</basis_specs>

Using PAO.SplitTailNorm
atom: Called for B                     (Z =   5)
NOTE: B pseudopotential has channels up to l= 1
NOTE: PAOs with higher l will be generated with V_local
Maximum radius (at nrval) set to   50.00000 8518

read_vps: Pseudopotential generation method:
read_vps: ONCVPSP-3.Hamann's oncvpsp
Valence charge in pseudo generation:    3.00000

read_vps: Pseudopotential includes a core correction:
read_vps: Pseudo-core for xc-correction

xc_check: Exchange-correlation functional:
xc_check: GGA PBEsol
Got Vlocal (oncv-fit) from psml data
Choosing vlocal chloc cutoff:  3.201794
qtot up to nchloc:    3.00023194
atom: Maximum radius for chlocal:    3.20179
atom: Maximum radius for r*vlocal+2*Zval:    3.20179
Reading KB projs from B psml data
Using scalar-relativistic projectors in PSML file

PSML: Kleinman-Bylander projectors:
   l= 0   rc=  1.223468   Ekb= 16.933205
   l= 0   rc=  1.223468   Ekb=  2.495260
   l= 1   rc=  1.223468   Ekb= -7.218359
   l= 1   rc=  1.223468   Ekb= -1.645242

PSML: Total number of  Kleinman-Bylander projectors:   8
atom: -------------------------------------------------------------------------

atom: SANKEY-TYPE ORBITALS:
atom: Selected multiple-zeta basis: split

[...]

SPLIT: Basis orbitals for state 2s

[...]

   izeta = 2
                 rmatch =    3.823698
              splitnorm =    0.150000
                 energy =   -0.502064
                kinetic =    1.116406
    potential(screened) =   -1.618470
       potential(ionic) =   -3.792969

SPLIT: Orbitals with angular momentum L= 1

SPLIT: Basis orbitals for state 2p

SPLIT: PAO cut-off radius determined from an
SPLIT: energy shift=  0.005000 Ry
Split based on tail norm

   izeta = 1
                 lambda =    1.000000
                     rc =    7.066857
                 energy =   -0.255540
                kinetic =    1.512761
    potential(screened) =   -1.768301
       potential(ionic) =   -3.690166

   izeta = 2
                 rmatch =    4.748011
              splitnorm =    0.150000
[...]
redata: Require DM convergence for SCF              =   T
redata: DM tolerance for SCF                        =     0.000010
redata: Require EDM convergence for SCF             =   F
redata: EDM tolerance for SCF                       =     0.001000 eV
redata: Require H convergence for SCF               =   T
redata: Hamiltonian tolerance for SCF               =     0.001000 eV
redata: Require (free) Energy convergence for SCF   =   F
redata: (free) Energy tolerance for SCF             =     0.000100 eV
redata: Using DFT-D3 dispersion                     =   F
redata: Using Saved Data (generic)                  =   F
redata: Use continuation files for DM               =   T
redata: Neglect nonoverlap interactions             =   F
redata: Method of Calculation                       = Diagonalization
redata: Electronic Temperature                      =    50.0000 K
redata: Fix the spin of the system                  =   F
redata: Max. number of TDED Iter                    =        1
redata: Number of TDED substeps                     =        3
redata: Dynamics option                             = Single-point calculation
mix.SCF: Pulay mixing                            = Pulay
mix.SCF:    Variant                              = stable
mix.SCF:    History steps                        = 10
mix.SCF:    Linear mixing weight                 =     0.025000
mix.SCF:    Mixing weight                        =     0.025000
mix.SCF:    SVD condition                        = 0.1000E-07
redata: ***********************************************************************

%block SCF.Mixers
  Pulay
%endblock SCF.Mixers

%block SCF.Mixer.Pulay
  # Mixing method
  method pulay
  variant stable

  # Mixing options
  weight 0.0250
  weight.linear 0.0250
  history 10
%endblock SCF.Mixer.Pulay

DM_history_depth set to one: no extrapolation allowed by default for geometry relaxation
Size of DM history Fstack: 1
Total number of electrons:    32.000000
Total ionic charge:    32.000000

* ProcessorY, Blocksize:    4   4

* Orbital distribution balance (max,min):     8     4

k-point displ. along   1 input, could be:     0.00    0.50
k-point displ. along   2 input, could be:     0.00    0.50
k-point displ. along   3 input, could be:     0.00    0.50
 Kpoints in:          144 . Kpoints trimmed:          132

siesta: k-grid: Number of k-points = 132
siesta: k-points from Monkhorst-Pack grid
siesta: k-cutoff (effective) =    11.016 Ang
siesta: k-point supercell and displacements
siesta: k-grid:     6     0     0      0.000
siesta: k-grid:     0     6     0      0.000
siesta: k-grid:     0     0     6      0.000

diag: Algorithm                                     = D&C
diag: Parallel over k                               =   F
diag: Use parallel 2D distribution                  =   T
diag: Parallel block-size                           = 4
diag: Parallel distribution                         =     4 x     6
diag: Used triangular part                          = Lower
diag: Absolute tolerance                            =  0.100E-15
diag: Orthogonalization factor                      =  0.100E-05

superc: Internal auxiliary supercell:     5 x     5 x     5  =     125
superc: Number of atoms, orbitals, and projectors:   1000  13000   8000

ts: **************************************************************
ts: Save H and S matrices                           =    F
ts: Save DM and EDM matrices                        =    F
ts: Only save the overlap matrix S                  =    F
ts: **************************************************************

************************ Begin: TS CHECKS AND WARNINGS ************************
************************ End: TS CHECKS AND WARNINGS **************************

                        Single-point calculation

superc: Internal auxiliary supercell:     5 x     5 x     5  =     125
superc: Number of atoms, orbitals, and projectors:   1000  13000   8000

outcell: Unit cell vectors (Ang):
        3.672010    0.000000    0.000000
        0.000000    3.736280    0.000000
        0.000000    0.000000    3.747530

outcell: Cell vector modules (Ang)   :    3.672010    3.736280    3.747530
outcell: Cell angles (23,13,12) (deg):     90.0000     90.0000     90.0000
outcell: Cell volume (Ang**3)        :     51.4148
<dSpData1D:S at geom step 0
  <sparsity:sparsity for geom step 0
    nrows_g=104 nrows=8 sparsity=1.3978 nnzs=15119, refcount: 7>
  <dData1D:(new from dSpData1D) n=15119, refcount: 1>
refcount: 1>
new_DM -- step:     1
Initializing Density Matrix...

Attempting to read DM from file... Failed...
DM filled with atomic data:
<dSpData2D:DM initialized from atoms
  <sparsity:sparsity for geom step 0
    nrows_g=104 nrows=8 sparsity=1.3978 nnzs=15119, refcount: 8>
  <dData2D:DM n=15119 m=1, refcount: 1>
refcount: 1>
No. of atoms with KB's overlaping orbs in proc 0. Max # of overlaps:      61     413

InitMesh: MESH = 48 x 48 x 48 = 110592
InitMesh: Mesh cutoff (required, used) =   400.000   453.413 Ry
New grid distribution [1]: sub = 2
New grid distribution [2]: sub = 2
New grid distribution [3]: sub = 2
Setting up quadratic distribution...

stepf: Fermi-Dirac step function

siesta: Program's energy decomposition (eV):
siesta: Ebs     =      -441.965308
siesta: Eions   =      2442.366599
siesta: Ena     =       594.759297
siesta: Ekin    =      1039.298471
siesta: Enl     =      -120.654129
siesta: Eso     =         0.000000
siesta: Edftu   =         0.000000
siesta: DEna    =       -55.316613
siesta: DUscf   =         6.550466
siesta: DUext   =         0.000000
siesta: Ex      =      -430.168207
siesta: Ec      =       -43.795557
siesta: Exc     =      -473.963765
siesta: EbV     =         0.000000
siesta: eta*DQ  =         0.000000
siesta: Emadel  =         0.000000
siesta: Emeta   =         0.000000
siesta: Emolmec =         0.000000
siesta: Ekinion =         0.000000
siesta: Eharris =     -1429.383310
siesta: Etot    =     -1451.692872
siesta: FreeEng =     -1451.692872

        iscf     Eharris(eV)        E_KS(eV)     FreeEng(eV)     dDmax    Ef(eV) dHmax(eV)
   scf:    1    -1429.383310    -1451.692872    -1451.692872  1.642759 -4.460530  4.002228
 IterSCF                          1       1.558  100.00
  compute_dm                      1       1.352   86.75
  setup_H                         1       0.203   13.02
  MIXER                           1       0.000    0.00
   scf:    2    -1452.222604    -1451.960358    -1451.960358  0.010510 -4.420001  3.764377
   scf:    3    -1454.328762    -1453.863405    -1453.863405  0.149166 -5.693447  0.502978
   scf:    4    -1453.706701    -1453.789220    -1453.789220  0.023466 -3.829001  0.735429
   scf:    5    -1453.989656    -1453.919410    -1453.919410  0.082015 -5.513405  0.181947
   scf:    6    -1453.918909    -1453.920319    -1453.920319  0.004579 -5.503843  0.069665
   scf:    7    -1453.921097    -1453.921347    -1453.921347  0.001862 -5.497510  0.037158
   scf:    8    -1453.921634    -1453.921522    -1453.921522  0.002352 -5.503621  0.007266
   scf:    9    -1453.921543    -1453.921535    -1453.921535  0.000409 -5.502503  0.004970
   scf:   10    -1453.921544    -1453.921540    -1453.921540  0.000906 -5.502647  0.001722
mix: Pulay -- inversion failed, > SVD [rank/size] 6 / 9
   scf:   11    -1453.921540    -1453.921540    -1453.921540  0.000099 -5.502930  0.000952
mix: Pulay -- inversion failed, > SVD [rank/size] 6 / 9
   scf:   12    -1453.921540    -1453.921540    -1453.921540  0.000027 -5.503000  0.000965
   scf:   13    -1453.921541    -1453.921540    -1453.921540  0.000233 -5.503156  0.000112
mix: Pulay -- inversion failed, > SVD [rank/size] 6 / 9
   scf:   14    -1453.921540    -1453.921540    -1453.921540  0.000001 -5.503146  0.000021

SCF Convergence by DM+H criterion
max |DM_out - DM_in|         :     0.0000013820
max |H_out - H_in|      (eV) :     0.0000206187
SCF cycle converged after 14 iterations

Using DM_out to compute the final energy and forces
No. of atoms with KB's overlaping orbs in proc 0. Max # of overlaps:      61     413

siesta: E_KS(eV) =            -1453.9215

siesta: E_KS - E_eggbox =     -1453.9215

siesta: Atomic forces (eV/Ang):
   Tot    0.000788    0.000503    0.000409
   Max    1.469436
   Res    0.770973    sqrt( Sum f_i^2 / 3N )
   Max    1.469436    constrained

Stress tensor Voigt[x,y,z,yz,xz,xy] (kbar):      208.59      305.23      325.44       -2.44        2.99        2.17
(Free)E + p*V (eV/cell)    -1462.8990
Target enthalpy (eV/cell)    -1453.9215

siesta: Program's energy decomposition (eV):
siesta: Ebs     =      -475.523130
siesta: Eions   =      2442.366599
siesta: Ena     =       594.759297
siesta: Ekin    =       987.820486
siesta: Enl     =      -104.542558
siesta: Eso     =         0.000000
siesta: Edftu   =         0.000000
siesta: DEna    =       -27.375892
siesta: DUscf   =         2.444291
siesta: DUext   =         0.000000
siesta: Ex      =      -420.579484
siesta: Ec      =       -44.081080
siesta: Exc     =      -464.660565
siesta: EbV     =         0.000000
siesta: eta*DQ  =         0.000000
siesta: Emadel  =         0.000000
siesta: Emeta   =         0.000000
siesta: Emolmec =         0.000000
siesta: Ekinion =         0.000000
siesta: Eharris =     -1453.921540
siesta: Etot    =     -1453.921540
siesta: FreeEng =     -1453.921540

siesta: Final energy (eV):
siesta:  Band Struct. =    -475.523130
siesta:       Kinetic =     987.820486
siesta:       Hartree =     201.103146
siesta:         Edftu =       0.000000
siesta:       Eso     =       0.000000
siesta:    Ext. field =       0.000000
siesta:         Exch. =    -420.579484
siesta:         Corr. =     -44.081080
siesta:     Bulk bias =       0.000000
siesta:   Exch.-corr. =    -464.660565
siesta:  Ion-electron =   -1336.203231
siesta:       Ion-ion =    -841.981376
siesta:       Ekinion =       0.000000
siesta: D3 dispersion =       0.000000
siesta:         Total =   -1453.921540
siesta:         Fermi =      -5.503146

siesta: Atomic forces (eV/Ang):
siesta:      1   -0.484341   -1.251536   -1.129333
siesta:      2   -0.438425    0.139866    0.435694
siesta:      3    0.279376   -0.889282    0.728196
siesta:      4    0.090085    0.130623   -1.469436
siesta:      5    0.353551   -0.194070   -0.346217
siesta:      6    0.421511    1.185840    1.418726
siesta:      7   -0.264334   -0.267814    1.130146
siesta:      8    0.043365    1.146875   -0.767367
siesta: ----------------------------------------
siesta:    Tot    0.000788    0.000503    0.000409

siesta: Stress tensor (static) (eV/Ang**3):
siesta:     0.130192    0.001356    0.001868
siesta:     0.001356    0.190508   -0.001521
siesta:     0.001868   -0.001521    0.203124

siesta: Cell volume =         51.414828 Ang**3

siesta: Pressure (static):
siesta:                Solid            Molecule  Units
siesta:          -0.00190172         -0.00149442  Ry/Bohr**3
siesta:          -0.17460811         -0.13721154  eV/Ang**3
siesta:        -279.75303433       -219.83712402  kBar
(Free)E+ p_basis*V_orbitals  =       -1449.337526
(Free)Eharris+ p_basis*V_orbitals  =       -1449.337526

cite: Please see "aiida.bib" for an exhaustive BiBTeX file.
cite: Please clearly indicate Siesta version in published work: NO_VERSION_LABEL_AVAILABLE
cite: This calculation has made use of the following articles
cite: which are encouraged to be cited in a published work.
        Primary SIESTA paper
          DOI: www.doi.org/10.1088/0953-8984/14/11/302

 global_section                   1      24.042  100.00
  siesta                          1      24.042  100.00
   Setup                          1       0.155    0.64
    bands                         1       0.000    0.00
    KSV_init                      1       0.000    0.00
   IterGeom                       1      23.869   99.28
    geom_init                     1       1.341    5.58
     state_init                   1       0.145    0.60
      hsparse                     1       0.007    0.03
      overlap                     1       0.068    0.28
     Setup_H0                     1       1.004    4.18
      naefs                       1       0.001    0.00
      MolMec                      1       0.000    0.00
      kinefsm                     1       0.065    0.27
      nlefsm                      1       0.355    1.48
      DHSCF_Init                  1       0.583    2.42
       DHSCF1                     1       0.042    0.18
        INITMESH                  1       0.000    0.00
       DHSCF2                     1       0.541    2.25
        REMESH                    1       0.134    0.56
         INITMESH                 2       0.012    0.05
          SPLOAD                  2       0.012    0.05
        REORD                     2       0.000    0.00
        PHION                     1       0.315    1.31
        COMM_BSC                  1       0.000    0.00
        POISON                    1       0.001    0.00
         fft                      2       0.001    0.00
     setup_H                      1       0.192    0.80
      DHSCF                       1       0.192    0.80
       DHSCF3                     1       0.192    0.80
        rhoofd                    1       0.101    0.42
        COMM_BSC                  2       0.020    0.08
        POISON                    1       0.001    0.00
         fft                      2       0.001    0.00
        XC                        1       0.005    0.02
         COMM_BSC                 2       0.000    0.00
         GXC-CellXC               1       0.005    0.02
          gridxc@cellXC           1       0.005    0.02
        vmat                      1       0.065    0.27
    IterSCF                      14      21.861   90.93
     compute_dm                  14      19.065   79.30
      diagon                     14      19.064   79.29
       c-eigval                1848       8.913   37.07
        c-buildHS              1848       0.371    1.54
        cdiag                  1848       8.541   35.52
         cdiag1                1848       0.499    2.08
         cdiag2                1848       1.153    4.79
         cdiag3                1848       6.749   28.07
       c-eigvec                1848       9.305   38.70
        cdiag                  1848       8.933   37.16
         cdiag1                1848       0.503    2.09
         cdiag2                1848       1.156    4.81
         cdiag3                1848       6.765   28.14
         cdiag4                1848       0.333    1.39
       c-buildD                1848       0.837    3.48
     setup_H                     14       2.741   11.40
      DHSCF                      14       2.740   11.40
       DHSCF3                    14       2.740   11.40
        rhoofd                   14       1.423    5.92
        COMM_BSC                 28       0.269    1.12
        POISON                   14       0.016    0.07
         fft                     28       0.015    0.06
        XC                       14       0.076    0.32
         COMM_BSC                28       0.002    0.01
         GXC-CellXC              14       0.074    0.31
          gridxc@cellXC          14       0.074    0.31
        vmat                     14       0.956    3.98
     MIXER                       13       0.007    0.03
    PostSCF                       1       0.665    2.77
     naefs                        1       0.000    0.00
     kinefsm                      1       0.003    0.01
     nlefsm                       1       0.054    0.22
     DHSCF                        1       0.518    2.15
      DHSCF3                      1       0.196    0.81
       rhoofd                     1       0.103    0.43
       COMM_BSC                   2       0.013    0.05
       POISON                     1       0.001    0.00
        fft                       2       0.001    0.00
       XC                         1       0.007    0.03
        COMM_BSC                  2       0.000    0.00
        GXC-CellXC                1       0.007    0.03
         gridxc@cellXC            1       0.007    0.03
       vmat                       1       0.073    0.30
      DHSCF4                      1       0.322    1.34
       REORD                     10       0.000    0.00
       COMM_BSC                   2       0.007    0.03
       dfscf                      1       0.266    1.11
     overfsm                      1       0.003    0.01
     MolMec                       1       0.000    0.00
     writeHSX                     1       0.005    0.02
    state_analysis                1       0.001    0.00
    siesta_move                   1       0.000    0.00
   Analysis                       1       0.017    0.07
    optical                       1       0.000    0.00

>> End of run:  13-APR-2024   5:49:36
Job completed