Runtime information:
* Directory : /home/ICN2/jgarridoa/aiida_run/9b/7b/4c9e-3f2e-4dcf-9380-5542798d932c
>> Start of run:  22-APR-2024  14:25:15

reinit: Reading from standard input
reinit: Dumping input in INPUT_TMP.50098
************************** Dump of input data file ****************************
atomiccoordinatesformat Ang
cdfsave True
dminitspinaf False
dmmixingweight 0.025
dmmixscf1 True
dmnumberpulay 10
dmtolerance 1e-05
electronictemperature 50.000 K
geometrymustconverge T
latticeconstant 1.0 Ang
maxscfiterations 1000
meshcutoff 400 Ry
noncollinearspin False
numberofatoms 3
numberofspecies 3
savehs True
solutionmethod diagon
spinorbit False
spinpolarized False
systemlabel aiida
systemname aiida
usetreetimer T
writedmhsnetcdf True
writeorbmom True
xcauthors PBEsol
xcfunctional GGA
xmlwrite T
#
# -- Basis Set Info follows
#
PAO-BasisSize DZP
PAO-SplitNorm 0.15
PAO-EnergyShift 0.005 Ry
#
# -- Structural Info follows
#
%block chemicalspecieslabel
    1     5      B
    2     6      C
    3     7      N
%endblock chemicalspecieslabel
%block lattice-vectors
      3.5999900000       0.0000000000       0.0000000000
      0.0000000000       3.5999900000       0.0000000000
      0.0000000000       0.0000000000       3.5999900000
%endblock lattice-vectors
%block atomiccoordinatesandatomicspecies
      3.3844585987       0.0000000000       0.0000000000    1      B      1
      1.6685593651       2.7392683909       0.5084985875    2      C      2
      3.2366070094       1.5898635837       2.9021679384    3      N      3
%endblock atomiccoordinatesandatomicspecies
#
# -- K-points Info follows
#
%block kgrid_monkhorst_pack
    12      0      0       0.0000000000
     0     12      0       0.0000000000
     0      0     12       0.0000000000
%endblock kgrid_monkhorst_pack
#
#
maxwalltime 7200000
************************** End of input data file *****************************

reinit: -----------------------------------------------------------------------
reinit: System Name: aiida
reinit: -----------------------------------------------------------------------
reinit: System Label: aiida
reinit: -----------------------------------------------------------------------

initatom: Reading input for the pseudopotentials and atomic orbitals ----------
Species number:   1 Atomic number:    5 Label: B
Species number:   2 Atomic number:    6 Label: C
Species number:   3 Atomic number:    7 Label: N

---- Processing specs for species: B
Ground state valence configuration:   2s02  2p01
Reading pseudopotential information in PSML from:
  B.psml
PSML file version: 1.1
GGA--PBEsol XC_GGA_X_PBE_SOL--XC_GGA_C_PBE_SOL ps
PSML uuid: 4c4355a0-1d5f-11e8-6182-f22cff9f01b0

---- Processing specs for species: C
Ground state valence configuration:   2s02  2p02
Reading pseudopotential information in PSML from:
  C.psml
PSML file version: 1.1
GGA--PBEsol XC_GGA_X_PBE_SOL--XC_GGA_C_PBE_SOL ps
PSML uuid: 51a02af0-1d5f-11e8-49c3-12b9ebd99919

---- Processing specs for species: N
Ground state valence configuration:   2s02  2p03
Reading pseudopotential information in PSML from:
  N.psml
PSML file version: 1.1
GGA--PBEsol XC_GGA_X_PBE_SOL--XC_GGA_C_PBE_SOL ps
PSML uuid: 56b43770-1d5f-11e8-525f-e1e3c77dc801

---- Pseudopotential check for B

Pseudized shells:
2s( 2.00) rc: 1.21
2p( 1.00) rc: 1.21
Valence configuration for ps generation: 2s:2p: Total charge:   3.000000

[...]

Pseudized shells:
2s( 2.00) rc: 1.20
2p( 2.00) rc: 1.26
Valence configuration for ps generation: 2s:2p: Total charge:   4.000000

---- Pseudopotential check for N

Pseudized shells:
2s( 2.00) rc: 1.21
2p( 3.00) rc: 1.36
Valence configuration for ps generation: 2s:2p: Total charge:   5.000000
For B, standard SIESTA heuristics set lmxkb to 3
 (one more than the basis l, including polarization orbitals).
Use PS.lmax or PS.KBprojectors blocks to override.
For C, standard SIESTA heuristics set lmxkb to 3
 (one more than the basis l, including polarization orbitals).
Use PS.lmax or PS.KBprojectors blocks to override.
For N, standard SIESTA heuristics set lmxkb to 3
 (one more than the basis l, including polarization orbitals).
Use PS.lmax or PS.KBprojectors blocks to override.
B pseudopotential only contains V_ls up to l=1 -- lmxkb reset.
C pseudopotential only contains V_ls up to l=1 -- lmxkb reset.
N pseudopotential only contains V_ls up to l=1 -- lmxkb reset.

<basis_specs>
B                    Z=   5    Mass=  10.810        Charge= 0.17977+309
Lmxo=2 Lmxkb= 1    BasisType=split      Semic=F
L=0  Nsemic=0  Cnfigmx=2
          i=1  nzeta=2  polorb=0  (2s)
            splnorm:   0.15000
               vcte:    40.000
               rinn:  -0.90000
               qcoe:    0.0000
               qyuk:    0.0000
               qwid:   0.10000E-01
                rcs:    0.0000      0.0000
            lambdas:    1.0000      1.0000
L=1  Nsemic=0  Cnfigmx=2
          i=1  nzeta=2  polorb=1  (2p)  (to be polarized perturbatively)
            splnorm:   0.15000
               vcte:    40.000
               rinn:  -0.90000
               qcoe:    0.0000
               qyuk:    0.0000
               qwid:   0.10000E-01
                rcs:    0.0000      0.0000
            lambdas:    1.0000      1.0000
L=2  Nsemic=0  Cnfigmx=3
          i=1  nzeta=0  polorb=0  (3d)  (perturbative polarization orbital) (from 2p)
L=0  Nkbl=1  erefs: 0.17977+309
L=1  Nkbl=1  erefs: 0.17977+309
</basis_specs>

Using PAO.SplitTailNorm
atom: Called for B                     (Z =   5)
NOTE: B pseudopotential has channels up to l= 1
NOTE: PAOs with higher l will be generated with V_local
Maximum radius (at nrval) set to   50.00000 8518

read_vps: Pseudopotential generation method:
read_vps: ONCVPSP-3.Hamann's oncvpsp
Valence charge in pseudo generation:    3.00000

read_vps: Pseudopotential includes a core correction:
read_vps: Pseudo-core for xc-correction

xc_check: Exchange-correlation functional:
xc_check: GGA PBEsol
Got Vlocal (oncv-fit) from psml data
Choosing vlocal chloc cutoff:  3.201794
qtot up to nchloc:    3.00023194
atom: Maximum radius for chlocal:    3.20179
atom: Maximum radius for r*vlocal+2*Zval:    3.20179
Reading KB projs from B psml data
Using scalar-relativistic projectors in PSML file

PSML: Kleinman-Bylander projectors:
   l= 0   rc=  1.223468   Ekb= 16.933205
   l= 0   rc=  1.223468   Ekb=  2.495260
   l= 1   rc=  1.223468   Ekb= -7.218359
   l= 1   rc=  1.223468   Ekb= -1.645242

PSML: Total number of  Kleinman-Bylander projectors:   8
atom: -------------------------------------------------------------------------

atom: SANKEY-TYPE ORBITALS:
atom: Selected multiple-zeta basis: split

SPLIT: Orbitals with angular momentum L= 0

SPLIT: Basis orbitals for state 2s

SPLIT: PAO cut-off radius determined from an
SPLIT: energy shift=  0.005000 Ry
Split based on tail norm

   izeta = 1
                 lambda =    1.000000
                     rc =    5.714927
                 energy =   -0.682223
                kinetic =    0.604116
    potential(screened) =   -1.286339
       potential(ionic) =   -3.302390

   izeta = 2
                 rmatch =    3.823698
              splitnorm =    0.150000
                 energy =   -0.502064
                kinetic =    1.116406
    potential(screened) =   -1.618470
       potential(ionic) =   -3.792969

[...]

SPLIT: Basis orbitals for state 2p

[...]

   izeta = 2
                 rmatch =    4.748011
              splitnorm =    0.150000
                 energy =   -0.176810
                kinetic =    2.206388
    potential(screened) =   -2.383198
       potential(ionic) =   -4.488680
*Note: V_local used for l= 2

** Using vlocal for PAOs with L= 2

POLgen: Perturbative polarization orbital with L=  2

POLgen: Polarization orbital for state 2p
*Note: V_local used for lpol= 2

** Using vlocal for PAOs with L= 2
Split based on tail norm

   izeta = 1
                     rc =    7.066857
                 energy =    0.676401
                kinetic =    1.417761
    potential(screened) =   -0.741360
       potential(ionic) =   -2.355753
atom: Total number of Sankey-type orbitals: 13

atm_pop: Valence configuration (for local Pseudopot. screening):
 2s( 2.00)
 2p( 1.00)
 3d( 0.00)
Vna: chval, zval:    3.00000   3.00000

Vna:  Cut-off radius for the neutral-atom potential:   7.066857
comcore: Pseudo-core radius Rcore=  1.975419

atom: _________________________________________________________________________

[...]

<basis_specs>
N                    Z=   7    Mass=  14.007        Charge= 0.17977+309
Lmxo=2 Lmxkb= 1    BasisType=split      Semic=F
L=0  Nsemic=0  Cnfigmx=2
          i=1  nzeta=2  polorb=0  (2s)
            splnorm:   0.15000
               vcte:    40.000
               rinn:  -0.90000
               qcoe:    0.0000
               qyuk:    0.0000
               qwid:   0.10000E-01
                rcs:    0.0000      0.0000
            lambdas:    1.0000      1.0000
L=1  Nsemic=0  Cnfigmx=2
          i=1  nzeta=2  polorb=1  (2p)  (to be polarized perturbatively)
            splnorm:   0.15000
               vcte:    40.000
               rinn:  -0.90000
               qcoe:    0.0000
               qyuk:    0.0000
               qwid:   0.10000E-01
                rcs:    0.0000      0.0000
            lambdas:    1.0000      1.0000
L=2  Nsemic=0  Cnfigmx=3
          i=1  nzeta=0  polorb=0  (3d)  (perturbative polarization orbital) (from 2p)
L=0  Nkbl=1  erefs: 0.17977+309
L=1  Nkbl=1  erefs: 0.17977+309
</basis_specs>

Using PAO.SplitTailNorm
atom: Called for N                     (Z =   7)
NOTE: N pseudopotential has channels up to l= 1
NOTE: PAOs with higher l will be generated with V_local
Maximum radius (at nrval) set to   50.00000 8518

read_vps: Pseudopotential generation method:
read_vps: ONCVPSP-3.Hamann's oncvpsp
Valence charge in pseudo generation:    5.00000

read_vps: Pseudopotential includes a core correction:
read_vps: Pseudo-core for xc-correction

xc_check: Exchange-correlation functional:
xc_check: GGA PBEsol
Got Vlocal (oncv-fit) from psml data
Choosing vlocal chloc cutoff:  6.038618
qtot up to nchloc:    4.99997633
atom: Maximum radius for chlocal:    6.03862
atom: Maximum radius for r*vlocal+2*Zval:    6.03862
Reading KB projs from N psml data
Using scalar-relativistic projectors in PSML file

PSML: Kleinman-Bylander projectors:
   l= 0   rc=  1.214864   Ekb= 14.928379
   l= 0   rc=  1.221004   Ekb=  1.251736
   l= 1   rc=  1.375180   Ekb= -8.619428
   l= 1   rc=  1.375180   Ekb= -2.025883

PSML: Total number of  Kleinman-Bylander projectors:   8
atom: -------------------------------------------------------------------------

atom: SANKEY-TYPE ORBITALS:
atom: Selected multiple-zeta basis: split

[...]

SPLIT: Basis orbitals for state 2s

[...]

   izeta = 2
                 rmatch =    2.696970
              splitnorm =    0.150000
                 energy =   -1.041987
                kinetic =    2.172223
    potential(screened) =   -3.214210
       potential(ionic) =   -9.191634

SPLIT: Orbitals with angular momentum L= 1

SPLIT: Basis orbitals for state 2p

SPLIT: PAO cut-off radius determined from an
SPLIT: energy shift=  0.005000 Ry
Split based on tail norm

   izeta = 1
[...]
redata: Harris energy tolerance for SCF             =     0.000100 eV
redata: Require DM convergence for SCF              =   T
redata: DM tolerance for SCF                        =     0.000010
redata: Require EDM convergence for SCF             =   F
redata: EDM tolerance for SCF                       =     0.001000 eV
redata: Require H convergence for SCF               =   T
redata: Hamiltonian tolerance for SCF               =     0.001000 eV
redata: Require (free) Energy convergence for SCF   =   F
redata: (free) Energy tolerance for SCF             =     0.000100 eV
redata: Using DFT-D3 dispersion                     =   F
redata: Using Saved Data (generic)                  =   F
redata: Use continuation files for DM               =   T
redata: Neglect nonoverlap interactions             =   F
redata: Method of Calculation                       = Diagonalization
redata: Electronic Temperature                      =    50.0000 K
redata: Fix the spin of the system                  =   F
redata: Max. number of TDED Iter                    =        1
redata: Number of TDED substeps                     =        3
redata: Dynamics option                             = Single-point calculation
mix.SCF: Pulay mixing                            = Pulay
mix.SCF:    Variant                              = stable
mix.SCF:    History steps                        = 10
mix.SCF:    Linear mixing weight                 =     0.025000
mix.SCF:    Mixing weight                        =     0.025000
mix.SCF:    SVD condition                        = 0.1000E-07
redata: ***********************************************************************

%block SCF.Mixers
  Pulay
%endblock SCF.Mixers

%block SCF.Mixer.Pulay
  # Mixing method
  method pulay
  variant stable

  # Mixing options
  weight 0.0250
  weight.linear 0.0250
  history 10
%endblock SCF.Mixer.Pulay

DM_history_depth set to one: no extrapolation allowed by default for geometry relaxation
Size of DM history Fstack: 1
Total number of electrons:    12.000000
Total ionic charge:    12.000000

* ProcessorY, Blocksize:    6   1

* Orbital distribution balance (max,min):     2     1

k-point displ. along   1 input, could be:     0.00    0.50
k-point displ. along   2 input, could be:     0.00    0.50
k-point displ. along   3 input, could be:     0.00    0.50
 Kpoints in:         1008 . Kpoints trimmed:          948

siesta: k-grid: Number of k-points = 948
siesta: k-points from Monkhorst-Pack grid
siesta: k-cutoff (effective) =    21.600 Ang
siesta: k-point supercell and displacements
siesta: k-grid:    12     0     0      0.000
siesta: k-grid:     0    12     0      0.000
siesta: k-grid:     0     0    12      0.000

diag: Algorithm                                     = D&C
diag: Parallel over k                               =   F
diag: Use parallel 2D distribution                  =   T
diag: Parallel block-size                           = 1
diag: Parallel distribution                         =     4 x     6
diag: Used triangular part                          = Lower
diag: Absolute tolerance                            =  0.100E-15
diag: Orthogonalization factor                      =  0.100E-05

superc: Internal auxiliary supercell:     5 x     5 x     5  =     125
superc: Number of atoms, orbitals, and projectors:    375   4875   3000

ts: **************************************************************
ts: Save H and S matrices                           =    F
ts: Save DM and EDM matrices                        =    F
ts: Only save the overlap matrix S                  =    F
ts: **************************************************************

************************ Begin: TS CHECKS AND WARNINGS ************************
************************ End: TS CHECKS AND WARNINGS **************************

                        Single-point calculation

superc: Internal auxiliary supercell:     5 x     5 x     5  =     125
superc: Number of atoms, orbitals, and projectors:    375   4875   3000

outcell: Unit cell vectors (Ang):
        3.599990    0.000000    0.000000
        0.000000    3.599990    0.000000
        0.000000    0.000000    3.599990

outcell: Cell vector modules (Ang)   :    3.599990    3.599990    3.599990
outcell: Cell angles (23,13,12) (deg):     90.0000     90.0000     90.0000
outcell: Cell volume (Ang**3)        :     46.6556
<dSpData1D:S at geom step 0
  <sparsity:sparsity for geom step 0
    nrows_g=39 nrows=2 sparsity=1.2663 nnzs=1926, refcount: 7>
  <dData1D:(new from dSpData1D) n=1926, refcount: 1>
refcount: 1>
new_DM -- step:     1
Initializing Density Matrix...

Attempting to read DM from file... Failed...
DM filled with atomic data:
<dSpData2D:DM initialized from atoms
  <sparsity:sparsity for geom step 0
    nrows_g=39 nrows=2 sparsity=1.2663 nnzs=1926, refcount: 8>
  <dData2D:DM n=1926 m=1, refcount: 1>
refcount: 1>
No. of atoms with KB's overlaping orbs in proc 0. Max # of overlaps:      28     175

InitMesh: MESH = 48 x 48 x 48 = 110592
InitMesh: Mesh cutoff (required, used) =   400.000   491.340 Ry
New grid distribution [1]: sub = 2
New grid distribution [2]: sub = 2
New grid distribution [3]: sub = 2
Setting up quadratic distribution...

stepf: Fermi-Dirac step function

siesta: Program's energy decomposition (eV):
siesta: Ebs     =      -124.965942
siesta: Eions   =       892.933826
siesta: Ena     =       240.076614
siesta: Ekin    =       304.977221
siesta: Enl     =       -16.251161
siesta: Eso     =         0.000000
siesta: Edftu   =         0.000000
siesta: DEna    =         4.917234
siesta: DUscf   =         2.466413
siesta: DUext   =         0.000000
siesta: Ex      =      -141.695178
siesta: Ec      =       -14.448502
siesta: Exc     =      -156.143679
siesta: EbV     =         0.000000
siesta: eta*DQ  =         0.000000
siesta: Emadel  =         0.000000
siesta: Emeta   =         0.000000
siesta: Emolmec =         0.000000
siesta: Ekinion =         0.000000
siesta: Eharris =      -514.612455
siesta: Etot    =      -512.891185
siesta: FreeEng =      -512.891286

        iscf     Eharris(eV)        E_KS(eV)     FreeEng(eV)     dDmax    Ef(eV) dHmax(eV)
   scf:    1     -514.612455     -512.891185     -512.891286  1.467014 -6.040137  5.097112
 IterSCF                          1       5.836  100.00
  compute_dm                      1       5.791   99.23
  setup_H                         1       0.044    0.75
  MIXER                           1       0.000    0.00
   scf:    2     -513.949525     -513.449957     -513.450040  0.027022 -6.037132  3.954084
   scf:    3     -514.387261     -514.367930     -514.368018  0.106568 -6.006584  0.706658
   scf:    4     -514.052979     -514.279282     -514.279393  0.042405 -6.041726  1.268727
   scf:    5     -514.437699     -514.373428     -514.373517  0.041549 -6.100172  0.874765
   scf:    6     -514.430105     -514.405403     -514.405487  0.012569 -6.120568  0.525840
   scf:    7     -514.419079     -514.422757     -514.422855  0.028449 -6.170133  0.103427
   scf:    8     -514.420139     -514.422714     -514.422822  0.006193 -6.185708  0.150915
   scf:    9     -514.423419     -514.423731     -514.423834  0.004830 -6.181071  0.033722
   scf:   10     -514.423820     -514.423791     -514.423896  0.000590 -6.181231  0.012460
   scf:   11     -514.423816     -514.423808     -514.423915  0.000883 -6.182226  0.001185
   scf:   12     -514.423806     -514.423807     -514.423914  0.000080 -6.182224  0.003930
   scf:   13     -514.423807     -514.423808     -514.423915  0.000192 -6.182196  0.002447
   scf:   14     -514.423808     -514.423808     -514.423915  0.000024 -6.182187  0.001615
   scf:   15     -514.423808     -514.423808     -514.423915  0.000081 -6.182177  0.000482
mix: Pulay -- inversion failed, > SVD [rank/size] 7 / 9
   scf:   16     -514.423808     -514.423808     -514.423915  0.000016 -6.182184  0.000042
   scf:   17     -514.423808     -514.423808     -514.423915  0.000008 -6.182186  0.000061

SCF Convergence by DM+H criterion
max |DM_out - DM_in|         :     0.0000075248
max |H_out - H_in|      (eV) :     0.0000605681
SCF cycle converged after 17 iterations

Using DM_out to compute the final energy and forces
No. of atoms with KB's overlaping orbs in proc 0. Max # of overlaps:      28     175

siesta: E_KS(eV) =             -514.4238

siesta: E_KS - E_eggbox =      -514.4238

siesta: Atomic forces (eV/Ang):
   Tot    0.000095    0.000194   -0.000672
   Max    2.247658
   Res    1.475325    sqrt( Sum f_i^2 / 3N )
   Max    2.247658    constrained

Stress tensor Voigt[x,y,z,yz,xz,xy] (kbar):      427.43      482.98      139.26      -84.38      -33.77      -63.33
(Free)E + p*V (eV/cell)     -524.6128
Target enthalpy (eV/cell)     -514.4239

siesta: Program's energy decomposition (eV):
siesta: Ebs     =      -137.867206
siesta: Eions   =       892.933826
siesta: Ena     =       240.076614
siesta: Ekin    =       296.262941
siesta: Enl     =       -12.344644
siesta: Eso     =         0.000000
siesta: Edftu   =         0.000000
siesta: DEna    =         8.296189
siesta: DUscf   =         0.418357
siesta: DUext   =         0.000000
siesta: Ex      =      -139.780252
siesta: Ec      =       -14.419188
siesta: Exc     =      -154.199440
siesta: EbV     =         0.000000
siesta: eta*DQ  =         0.000000
siesta: Emadel  =         0.000000
siesta: Emeta   =         0.000000
siesta: Emolmec =         0.000000
siesta: Ekinion =         0.000000
siesta: Eharris =      -514.423808
siesta: Etot    =      -514.423808
siesta: FreeEng =      -514.423915

siesta: Final energy (eV):
siesta:  Band Struct. =    -137.867206
siesta:       Kinetic =     296.262941
siesta:       Hartree =     108.171977
siesta:         Edftu =       0.000000
siesta:       Eso     =       0.000000
siesta:    Ext. field =       0.000000
siesta:         Exch. =    -139.780252
siesta:         Corr. =     -14.419188
siesta:     Bulk bias =       0.000000
siesta:   Exch.-corr. =    -154.199440
siesta:  Ion-electron =    -480.117716
siesta:       Ion-ion =    -284.541570
siesta:       Ekinion =       0.000000
siesta: D3 dispersion =       0.000000
siesta:         Total =    -514.423808
siesta:         Fermi =      -6.182186

siesta: Atomic forces (eV/Ang):
siesta:      1   -1.043401    0.632868   -0.746985
siesta:      2    1.718608    1.503901   -1.501346
siesta:      3   -0.675112   -2.136575    2.247658
siesta: ----------------------------------------
siesta:    Tot    0.000095    0.000194   -0.000672

siesta: Stress tensor (static) (eV/Ang**3):
siesta:     0.266783   -0.039530   -0.021077
siesta:    -0.039530    0.301455   -0.052668
siesta:    -0.021077   -0.052668    0.086916

siesta: Cell volume =         46.655611 Ang**3

siesta: Pressure (static):
siesta:                Solid            Molecule  Units
siesta:          -0.00237851         -0.00266127  Ry/Bohr**3
siesta:          -0.21838455         -0.24434625  eV/Ang**3
siesta:        -349.89062737       -391.48585661  kBar
(Free)E+ p_basis*V_orbitals  =        -512.786933
(Free)Eharris+ p_basis*V_orbitals  =        -512.786933

cite: Please see "aiida.bib" for an exhaustive BiBTeX file.
cite: Please clearly indicate Siesta version in published work: NO_VERSION_LABEL_AVAILABLE
cite: This calculation has made use of the following articles
cite: which are encouraged to be cited in a published work.
        Primary SIESTA paper
          DOI: www.doi.org/10.1088/0953-8984/14/11/302

 global_section                   1     101.410  100.00
  siesta                          1     101.410  100.00
   Setup                          1       0.229    0.23
    bands                         1       0.000    0.00
    KSV_init                      1       0.000    0.00
   IterGeom                       1     101.129   99.72
    geom_init                     1       1.634    1.61
     state_init                   1       0.091    0.09
      hsparse                     1       0.001    0.00
      overlap                     1       0.032    0.03
     Setup_H0                     1       1.497    1.48
      naefs                       1       0.001    0.00
      MolMec                      1       0.000    0.00
      kinefsm                     1       0.025    0.02
      nlefsm                      1       0.735    0.72
      DHSCF_Init                  1       0.735    0.73
       DHSCF1                     1       0.044    0.04
        INITMESH                  1       0.000    0.00
       DHSCF2                     1       0.692    0.68
        REMESH                    1       0.480    0.47
         INITMESH                 2       0.416    0.41
          SPLOAD                  2       0.416    0.41
        REORD                     2       0.000    0.00
        PHION                     1       0.156    0.15
        COMM_BSC                  1       0.000    0.00
        POISON                    1       0.001    0.00
         fft                      2       0.001    0.00
     setup_H                      1       0.047    0.05
      DHSCF                       1       0.047    0.05
       DHSCF3                     1       0.047    0.05
        rhoofd                    1       0.022    0.02
        COMM_BSC                  2       0.003    0.00
        POISON                    1       0.003    0.00
         fft                      2       0.003    0.00
        XC                        1       0.007    0.01
         COMM_BSC                 2       0.000    0.00
         GXC-CellXC               1       0.006    0.01
          gridxc@cellXC           1       0.006    0.01
        vmat                      1       0.012    0.01
    IterSCF                      17      99.354   97.97
     compute_dm                  17      98.590   97.22
      diagon                     17      98.589   97.22
       c-eigval               16116      47.975   47.31
        c-buildHS             16116       0.458    0.45
        cdiag                 16116      47.507   46.85
         cdiag1               16116       4.459    4.40
         cdiag2               16116       9.937    9.80
         cdiag3               16116      32.215   31.77
       c-eigvec               16116      49.678   48.99
        cdiag                 16116      49.223   48.54
         cdiag1               16116       4.441    4.38
         cdiag2               16116       9.953    9.82
         cdiag3               16116      32.254   31.81
         cdiag4               16116       1.633    1.61
       c-buildD               16116       0.826    0.81
     setup_H                     17       0.749    0.74
      DHSCF                      17       0.749    0.74
       DHSCF3                    17       0.749    0.74
        rhoofd                   17       0.357    0.35
        COMM_BSC                 34       0.003    0.00
        POISON                   17       0.074    0.07
         fft                     34       0.073    0.07
        XC                       17       0.099    0.10
         COMM_BSC                34       0.002    0.00
         GXC-CellXC              17       0.097    0.10
          gridxc@cellXC          17       0.097    0.10
        vmat                     17       0.214    0.21
     MIXER                       16       0.002    0.00
    PostSCF                       1       0.140    0.14
     naefs                        1       0.000    0.00
     kinefsm                      1       0.001    0.00
     nlefsm                       1       0.009    0.01
     DHSCF                        1       0.128    0.13
      DHSCF3                      1       0.037    0.04
       rhoofd                     1       0.020    0.02
       COMM_BSC                   2       0.000    0.00
       POISON                     1       0.001    0.00
        fft                       2       0.001    0.00
       XC                         1       0.005    0.00
        COMM_BSC                  2       0.000    0.00
        GXC-CellXC                1       0.005    0.00
         gridxc@cellXC            1       0.005    0.00
       vmat                       1       0.012    0.01
      DHSCF4                      1       0.091    0.09
       REORD                     10       0.000    0.00
       COMM_BSC                   2       0.000    0.00
       dfscf                      1       0.067    0.07
     overfsm                      1       0.001    0.00
     MolMec                       1       0.000    0.00
     writeHSX                     1       0.001    0.00
    state_analysis                1       0.000    0.00
    siesta_move                   1       0.000    0.00
   Analysis                       1       0.050    0.05
    optical                       1       0.000    0.00

>> End of run:  22-APR-2024  14:26:57
Job completed