Runtime information:
* Directory : /home/ICN2/jgarridoa/aiida_run/2a/20/82b7-2729-47c8-8955-4e2bd4bcd829
>> Start of run:  12-APR-2024  18:27:53

reinit: Reading from standard input
reinit: Dumping input in INPUT_TMP.91236
************************** Dump of input data file ****************************
atomiccoordinatesformat Ang
cdfsave True
dminitspinaf False
dmmixingweight 0.025
dmmixscf1 True
dmnumberpulay 10
dmtolerance 1e-05
electronictemperature 50.000 K
geometrymustconverge T
latticeconstant 1.0 Ang
maxscfiterations 1000
meshcutoff 400 Ry
noncollinearspin False
numberofatoms 2
numberofspecies 2
savehs True
solutionmethod diagon
spinorbit False
spinpolarized False
systemlabel aiida
systemname aiida
usetreetimer T
writedmhsnetcdf True
writeorbmom True
xcauthors PBEsol
xcfunctional GGA
xmlwrite T
#
# -- Basis Set Info follows
#
PAO-BasisSize DZP
PAO-SplitNorm 0.15
PAO-EnergyShift 0.005 Ry
#
# -- Structural Info follows
#
%block chemicalspecieslabel
    1     6      C
    2     5      B
%endblock chemicalspecieslabel
%block lattice-vectors
      3.5999900000       0.0000000000       0.0000000000
      0.0000000000       3.5999900000       0.0000000000
      0.0000000000       0.0000000000       3.5999900000
%endblock lattice-vectors
%block atomiccoordinatesandatomicspecies
      0.0000000000       0.0000000000       3.3314667459    1      C      1
      0.0000000000       0.0000000000       1.0445010986    2      B      2
%endblock atomiccoordinatesandatomicspecies
#
# -- K-points Info follows
#
%block kgrid_monkhorst_pack
     8      0      0       0.0000000000
     0      8      0       0.0000000000
     0      0      8       0.0000000000
%endblock kgrid_monkhorst_pack
#
#
maxwalltime 7200000
************************** End of input data file *****************************

reinit: -----------------------------------------------------------------------
reinit: System Name: aiida
reinit: -----------------------------------------------------------------------
reinit: System Label: aiida
reinit: -----------------------------------------------------------------------

initatom: Reading input for the pseudopotentials and atomic orbitals ----------
Species number:   1 Atomic number:    6 Label: C
Species number:   2 Atomic number:    5 Label: B

---- Processing specs for species: C
Ground state valence configuration:   2s02  2p02
Reading pseudopotential information in PSML from:
  C.psml
PSML file version: 1.1
GGA--PBEsol XC_GGA_X_PBE_SOL--XC_GGA_C_PBE_SOL ps
PSML uuid: 51a02af0-1d5f-11e8-49c3-12b9ebd99919

---- Processing specs for species: B
Ground state valence configuration:   2s02  2p01
Reading pseudopotential information in PSML from:
  B.psml
PSML file version: 1.1
GGA--PBEsol XC_GGA_X_PBE_SOL--XC_GGA_C_PBE_SOL ps
PSML uuid: 4c4355a0-1d5f-11e8-6182-f22cff9f01b0

---- Pseudopotential check for C

Pseudized shells:
2s( 2.00) rc: 1.20
2p( 2.00) rc: 1.26
Valence configuration for ps generation: 2s:2p: Total charge:   4.000000

---- Pseudopotential check for B

Pseudized shells:
2s( 2.00) rc: 1.21
2p( 1.00) rc: 1.21
Valence configuration for ps generation: 2s:2p: Total charge:   3.000000
For C, standard SIESTA heuristics set lmxkb to 3
 (one more than the basis l, including polarization orbitals).
Use PS.lmax or PS.KBprojectors blocks to override.
For B, standard SIESTA heuristics set lmxkb to 3
 (one more than the basis l, including polarization orbitals).
Use PS.lmax or PS.KBprojectors blocks to override.
C pseudopotential only contains V_ls up to l=1 -- lmxkb reset.
B pseudopotential only contains V_ls up to l=1 -- lmxkb reset.

<basis_specs>
C                    Z=   6    Mass=  12.011        Charge= 0.17977+309
Lmxo=2 Lmxkb= 1    BasisType=split      Semic=F
L=0  Nsemic=0  Cnfigmx=2
          i=1  nzeta=2  polorb=0  (2s)
            splnorm:   0.15000
               vcte:    40.000
               rinn:  -0.90000
               qcoe:    0.0000
               qyuk:    0.0000
               qwid:   0.10000E-01
                rcs:    0.0000      0.0000
            lambdas:    1.0000      1.0000
L=1  Nsemic=0  Cnfigmx=2
          i=1  nzeta=2  polorb=1  (2p)  (to be polarized perturbatively)
            splnorm:   0.15000
               vcte:    40.000
               rinn:  -0.90000
               qcoe:    0.0000
               qyuk:    0.0000
               qwid:   0.10000E-01
                rcs:    0.0000      0.0000
            lambdas:    1.0000      1.0000
L=2  Nsemic=0  Cnfigmx=3
          i=1  nzeta=0  polorb=0  (3d)  (perturbative polarization orbital) (from 2p)
L=0  Nkbl=1  erefs: 0.17977+309
L=1  Nkbl=1  erefs: 0.17977+309
</basis_specs>

Using PAO.SplitTailNorm
atom: Called for C                     (Z =   6)
NOTE: C pseudopotential has channels up to l= 1
NOTE: PAOs with higher l will be generated with V_local
Maximum radius (at nrval) set to   50.00000 8518

read_vps: Pseudopotential generation method:
read_vps: ONCVPSP-3.Hamann's oncvpsp
Valence charge in pseudo generation:    4.00000

read_vps: Pseudopotential includes a core correction:
read_vps: Pseudo-core for xc-correction

xc_check: Exchange-correlation functional:
xc_check: GGA PBEsol
Got Vlocal (oncv-fit) from psml data
Choosing vlocal chloc cutoff:  4.114026
qtot up to nchloc:    4.00001066
atom: Maximum radius for chlocal:    4.11403
atom: Maximum radius for r*vlocal+2*Zval:    4.11403
Reading KB projs from C psml data
Using scalar-relativistic projectors in PSML file

PSML: Kleinman-Bylander projectors:
   l= 0   rc=  1.219773   Ekb= 12.937878
   l= 0   rc=  1.219773   Ekb=  0.780062
   l= 1   rc=  1.278952   Ekb= -8.359390
   l= 1   rc=  1.278952   Ekb= -1.756905

PSML: Total number of  Kleinman-Bylander projectors:   8
atom: -------------------------------------------------------------------------

atom: SANKEY-TYPE ORBITALS:
atom: Selected multiple-zeta basis: split

SPLIT: Orbitals with angular momentum L= 0

SPLIT: Basis orbitals for state 2s

SPLIT: PAO cut-off radius determined from an
SPLIT: energy shift=  0.005000 Ry
Split based on tail norm

   izeta = 1
                 lambda =    1.000000
                     rc =    4.858714
                 energy =   -0.997375
                kinetic =    0.928233
    potential(screened) =   -1.925608
       potential(ionic) =   -5.470603

   izeta = 2
                 rmatch =    3.157143
              splitnorm =    0.150000
                 energy =   -0.747328
                kinetic =    1.689643
    potential(screened) =   -2.436971
       potential(ionic) =   -6.275825

[...]

SPLIT: Basis orbitals for state 2p

[...]

   izeta = 2
                 rmatch =    3.889428
              splitnorm =    0.150000
                 energy =   -0.273331
                kinetic =    3.469746
    potential(screened) =   -3.743077
       potential(ionic) =   -7.475055
*Note: V_local used for l= 2

** Using vlocal for PAOs with L= 2

POLgen: Perturbative polarization orbital with L=  2

POLgen: Polarization orbital for state 2p
*Note: V_local used for lpol= 2

** Using vlocal for PAOs with L= 2
Split based on tail norm

   izeta = 1
                     rc =    5.984425
                 energy =    1.076317
                kinetic =    2.134413
    potential(screened) =   -1.058097
       potential(ionic) =   -3.835567
atom: Total number of Sankey-type orbitals: 13

atm_pop: Valence configuration (for local Pseudopot. screening):
 2s( 2.00)
 2p( 2.00)
 3d( 0.00)
Vna: chval, zval:    4.00000   4.00000

Vna:  Cut-off radius for the neutral-atom potential:   5.984425
comcore: Pseudo-core radius Rcore=  1.671741

atom: _________________________________________________________________________

<basis_specs>
B                    Z=   5    Mass=  10.810        Charge= 0.17977+309
Lmxo=2 Lmxkb= 1    BasisType=split      Semic=F
L=0  Nsemic=0  Cnfigmx=2
          i=1  nzeta=2  polorb=0  (2s)
            splnorm:   0.15000
               vcte:    40.000
               rinn:  -0.90000
               qcoe:    0.0000
               qyuk:    0.0000
               qwid:   0.10000E-01
                rcs:    0.0000      0.0000
            lambdas:    1.0000      1.0000
L=1  Nsemic=0  Cnfigmx=2
          i=1  nzeta=2  polorb=1  (2p)  (to be polarized perturbatively)
            splnorm:   0.15000
               vcte:    40.000
               rinn:  -0.90000
               qcoe:    0.0000
               qyuk:    0.0000
               qwid:   0.10000E-01
                rcs:    0.0000      0.0000
            lambdas:    1.0000      1.0000
L=2  Nsemic=0  Cnfigmx=3
          i=1  nzeta=0  polorb=0  (3d)  (perturbative polarization orbital) (from 2p)
L=0  Nkbl=1  erefs: 0.17977+309
L=1  Nkbl=1  erefs: 0.17977+309
</basis_specs>

Using PAO.SplitTailNorm
atom: Called for B                     (Z =   5)
NOTE: B pseudopotential has channels up to l= 1
NOTE: PAOs with higher l will be generated with V_local
Maximum radius (at nrval) set to   50.00000 8518

read_vps: Pseudopotential generation method:
read_vps: ONCVPSP-3.Hamann's oncvpsp
Valence charge in pseudo generation:    3.00000

read_vps: Pseudopotential includes a core correction:
read_vps: Pseudo-core for xc-correction

xc_check: Exchange-correlation functional:
xc_check: GGA PBEsol
Got Vlocal (oncv-fit) from psml data
Choosing vlocal chloc cutoff:  3.201794
qtot up to nchloc:    3.00023194
atom: Maximum radius for chlocal:    3.20179
atom: Maximum radius for r*vlocal+2*Zval:    3.20179
Reading KB projs from B psml data
Using scalar-relativistic projectors in PSML file

PSML: Kleinman-Bylander projectors:
   l= 0   rc=  1.223468   Ekb= 16.933205
   l= 0   rc=  1.223468   Ekb=  2.495260
   l= 1   rc=  1.223468   Ekb= -7.218359
   l= 1   rc=  1.223468   Ekb= -1.645242

PSML: Total number of  Kleinman-Bylander projectors:   8
atom: -------------------------------------------------------------------------

atom: SANKEY-TYPE ORBITALS:
atom: Selected multiple-zeta basis: split

[...]

SPLIT: Basis orbitals for state 2s

[...]

   izeta = 2
                 rmatch =    3.823698
              splitnorm =    0.150000
                 energy =   -0.502064
                kinetic =    1.116406
    potential(screened) =   -1.618470
       potential(ionic) =   -3.792969

SPLIT: Orbitals with angular momentum L= 1

SPLIT: Basis orbitals for state 2p

SPLIT: PAO cut-off radius determined from an
SPLIT: energy shift=  0.005000 Ry
Split based on tail norm

   izeta = 1
                 lambda =    1.000000
                     rc =    7.066857
                 energy =   -0.255540
                kinetic =    1.512761
    potential(screened) =   -1.768301
       potential(ionic) =   -3.690166

   izeta = 2
                 rmatch =    4.748011
              splitnorm =    0.150000
                 energy =   -0.176810
                kinetic =    2.206388
    potential(screened) =   -2.383198
       potential(ionic) =   -4.488680
*Note: V_local used for l= 2

** Using vlocal for PAOs with L= 2

POLgen: Perturbative polarization orbital with L=  2

POLgen: Polarization orbital for state 2p
*Note: V_local used for lpol= 2

** Using vlocal for PAOs with L= 2
Split based on tail norm

   izeta = 1
                     rc =    7.066857
[...]
redata: Harris energy tolerance for SCF             =     0.000100 eV
redata: Require DM convergence for SCF              =   T
redata: DM tolerance for SCF                        =     0.000010
redata: Require EDM convergence for SCF             =   F
redata: EDM tolerance for SCF                       =     0.001000 eV
redata: Require H convergence for SCF               =   T
redata: Hamiltonian tolerance for SCF               =     0.001000 eV
redata: Require (free) Energy convergence for SCF   =   F
redata: (free) Energy tolerance for SCF             =     0.000100 eV
redata: Using DFT-D3 dispersion                     =   F
redata: Using Saved Data (generic)                  =   F
redata: Use continuation files for DM               =   T
redata: Neglect nonoverlap interactions             =   F
redata: Method of Calculation                       = Diagonalization
redata: Electronic Temperature                      =    50.0000 K
redata: Fix the spin of the system                  =   F
redata: Max. number of TDED Iter                    =        1
redata: Number of TDED substeps                     =        3
redata: Dynamics option                             = Single-point calculation
mix.SCF: Pulay mixing                            = Pulay
mix.SCF:    Variant                              = stable
mix.SCF:    History steps                        = 10
mix.SCF:    Linear mixing weight                 =     0.025000
mix.SCF:    Mixing weight                        =     0.025000
mix.SCF:    SVD condition                        = 0.1000E-07
redata: ***********************************************************************

%block SCF.Mixers
  Pulay
%endblock SCF.Mixers

%block SCF.Mixer.Pulay
  # Mixing method
  method pulay
  variant stable

  # Mixing options
  weight 0.0250
  weight.linear 0.0250
  history 10
%endblock SCF.Mixer.Pulay

DM_history_depth set to one: no extrapolation allowed by default for geometry relaxation
Size of DM history Fstack: 1
Total number of electrons:     7.000000
Total ionic charge:     7.000000

* ProcessorY, Blocksize:    6   1

* Orbital distribution balance (max,min):     2     1

k-point displ. along   1 input, could be:     0.00    0.50
k-point displ. along   2 input, could be:     0.00    0.50
k-point displ. along   3 input, could be:     0.00    0.50
 Kpoints in:          320 . Kpoints trimmed:          296

siesta: k-grid: Number of k-points = 296
siesta: k-points from Monkhorst-Pack grid
siesta: k-cutoff (effective) =    14.400 Ang
siesta: k-point supercell and displacements
siesta: k-grid:     8     0     0      0.000
siesta: k-grid:     0     8     0      0.000
siesta: k-grid:     0     0     8      0.000

diag: Algorithm                                     = D&C
diag: Parallel over k                               =   F
diag: Use parallel 2D distribution                  =   T
diag: Parallel block-size                           = 1
diag: Parallel distribution                         =     4 x     6
diag: Used triangular part                          = Lower
diag: Absolute tolerance                            =  0.100E-15
diag: Orthogonalization factor                      =  0.100E-05

superc: Internal auxiliary supercell:     5 x     5 x     5  =     125
superc: Number of atoms, orbitals, and projectors:    250   3250   2000

ts: **************************************************************
ts: Save H and S matrices                           =    F
ts: Save DM and EDM matrices                        =    F
ts: Only save the overlap matrix S                  =    F
ts: **************************************************************

************************ Begin: TS CHECKS AND WARNINGS ************************
************************ End: TS CHECKS AND WARNINGS **************************

                        Single-point calculation

superc: Internal auxiliary supercell:     5 x     5 x     5  =     125
superc: Number of atoms, orbitals, and projectors:    250   3250   2000

outcell: Unit cell vectors (Ang):
        3.599990    0.000000    0.000000
        0.000000    3.599990    0.000000
        0.000000    0.000000    3.599990

outcell: Cell vector modules (Ang)   :    3.599990    3.599990    3.599990
outcell: Cell angles (23,13,12) (deg):     90.0000     90.0000     90.0000
outcell: Cell volume (Ang**3)        :     46.6556
<dSpData1D:S at geom step 0
  <sparsity:sparsity for geom step 0
    nrows_g=26 nrows=2 sparsity=1.9275 nnzs=1303, refcount: 7>
  <dData1D:(new from dSpData1D) n=1303, refcount: 1>
refcount: 1>
new_DM -- step:     1
Initializing Density Matrix...

Attempting to read DM from file... Failed...
DM filled with atomic data:
<dSpData2D:DM initialized from atoms
  <sparsity:sparsity for geom step 0
    nrows_g=26 nrows=2 sparsity=1.9275 nnzs=1303, refcount: 8>
  <dData2D:DM n=1303 m=1, refcount: 1>
refcount: 1>
No. of atoms with KB's overlaping orbs in proc 0. Max # of overlaps:      17     151

InitMesh: MESH = 48 x 48 x 48 = 110592
InitMesh: Mesh cutoff (required, used) =   400.000   491.340 Ry
New grid distribution [1]: sub = 2
New grid distribution [2]: sub = 2
New grid distribution [3]: sub = 2
Setting up quadratic distribution...

stepf: Fermi-Dirac step function

siesta: Program's energy decomposition (eV):
siesta: Ebs     =       -67.706954
siesta: Eions   =       443.604604
siesta: Ena     =       146.643184
siesta: Ekin    =       154.436006
siesta: Enl     =        -0.371874
siesta: Eso     =         0.000000
siesta: Edftu   =         0.000000
siesta: DEna    =        -9.829150
siesta: DUscf   =         2.370491
siesta: DUext   =         0.000000
siesta: Ex      =       -76.036191
siesta: Ec      =        -8.101615
siesta: Exc     =       -84.137806
siesta: EbV     =         0.000000
siesta: eta*DQ  =         0.000000
siesta: Emadel  =         0.000000
siesta: Emeta   =         0.000000
siesta: Emolmec =         0.000000
siesta: Ekinion =         0.000000
siesta: Eharris =      -235.372798
siesta: Etot    =      -234.493753
siesta: FreeEng =      -234.493969

        iscf     Eharris(eV)        E_KS(eV)     FreeEng(eV)     dDmax    Ef(eV) dHmax(eV)
   scf:    1     -235.372798     -234.493753     -234.493969  1.429387 -7.866508  4.076723
 IterSCF                          1       1.255  100.00
  compute_dm                      1       1.214   96.71
  setup_H                         1       0.041    3.23
  MIXER                           1       0.000    0.00
   scf:    2     -234.734341     -234.615903     -234.616128  0.012189 -7.805799  3.761236
   scf:    3     -235.222179     -235.249794     -235.249931  0.155455 -7.048395  0.989170
   scf:    4     -235.335986     -235.332259     -235.332387  0.035220 -7.069976  0.658289
   scf:    5     -235.382046     -235.361981     -235.362088  0.029687 -6.880473  0.142234
   scf:    6     -235.343617     -235.354141     -235.354252  0.016919 -7.055161  0.414772
   scf:    7     -235.369427     -235.364246     -235.364353  0.018083 -6.939381  0.023580
   scf:    8     -235.364275     -235.364262     -235.364368  0.000328 -6.936753  0.016000
   scf:    9     -235.364286     -235.364281     -235.364387  0.001503 -6.931834  0.002498
mix: Pulay -- inversion failed, > SVD [rank/size] 5 / 8
   scf:   10     -235.364281     -235.364281     -235.364388  0.000049 -6.931581  0.002184
mix: Pulay -- inversion failed, > SVD [rank/size] 5 / 9
   scf:   11     -235.364281     -235.364281     -235.364388  0.000004 -6.931579  0.002135
mix: Pulay -- inversion failed, > SVD [rank/size] 5 / 9
   scf:   12     -235.364281     -235.364281     -235.364388  0.000011 -6.931663  0.002187
mix: Pulay -- inversion failed, > SVD [rank/size] 5 / 9
   scf:   13     -235.364282     -235.364282     -235.364388  0.000173 -6.931396  0.000483
mix: Pulay -- inversion failed, > SVD [rank/size] 4 / 9
   scf:   14     -235.364282     -235.364282     -235.364388  0.000011 -6.931481  0.000453
mix: Pulay -- inversion failed, > SVD [rank/size] 4 / 9
   scf:   15     -235.364282     -235.364282     -235.364388  0.000003 -6.931481  0.000443

SCF Convergence by DM+H criterion
max |DM_out - DM_in|         :     0.0000028445
max |H_out - H_in|      (eV) :     0.0004426779
SCF cycle converged after 15 iterations

Using DM_out to compute the final energy and forces
No. of atoms with KB's overlaping orbs in proc 0. Max # of overlaps:      17     151

siesta: E_KS(eV) =             -235.3643

siesta: E_KS - E_eggbox =      -235.3643

siesta: Atomic forces (eV/Ang):
   Tot    0.000000   -0.000000    0.000192
   Max   10.779471
   Res    6.223475    sqrt( Sum f_i^2 / 3N )
   Max   10.779471    constrained

Stress tensor Voigt[x,y,z,yz,xz,xy] (kbar):       46.46       46.46      109.02        0.00        0.00       -0.00
(Free)E + p*V (eV/cell)     -237.3245
Target enthalpy (eV/cell)     -235.3644

siesta: Program's energy decomposition (eV):
siesta: Ebs     =       -77.911735
siesta: Eions   =       443.604604
siesta: Ena     =       146.643184
siesta: Ekin    =       143.499457
siesta: Enl     =         1.693618
siesta: Eso     =         0.000000
siesta: Edftu   =         0.000000
siesta: DEna    =        -2.828333
siesta: DUscf   =         0.790864
siesta: DUext   =         0.000000
siesta: Ex      =       -73.494725
siesta: Ec      =        -8.063743
siesta: Exc     =       -81.558468
siesta: EbV     =         0.000000
siesta: eta*DQ  =         0.000000
siesta: Emadel  =         0.000000
siesta: Emeta   =         0.000000
siesta: Emolmec =         0.000000
siesta: Ekinion =         0.000000
siesta: Eharris =      -235.364282
siesta: Etot    =      -235.364282
siesta: FreeEng =      -235.364388

siesta: Final energy (eV):
siesta:  Band Struct. =     -77.911735
siesta:       Kinetic =     143.499457
siesta:       Hartree =      70.998991
siesta:         Edftu =       0.000000
siesta:       Eso     =       0.000000
siesta:    Ext. field =       0.000000
siesta:         Exch. =     -73.494725
siesta:         Corr. =      -8.063743
siesta:     Bulk bias =       0.000000
siesta:   Exch.-corr. =     -81.558468
siesta:  Ion-electron =    -272.744917
siesta:       Ion-ion =     -95.559345
siesta:       Ekinion =       0.000000
siesta: D3 dispersion =       0.000000
siesta:         Total =    -235.364282
siesta:         Fermi =      -6.931481

siesta: Atomic forces (eV/Ang):
siesta:      1    0.000000   -0.000000  -10.779279
siesta:      2   -0.000000   -0.000000   10.779471
siesta: ----------------------------------------
siesta:    Tot    0.000000   -0.000000    0.000192

siesta: Stress tensor (static) (eV/Ang**3):
siesta:     0.028998   -0.000000    0.000000
siesta:    -0.000000    0.028998    0.000000
siesta:     0.000000    0.000000    0.068043

siesta: Cell volume =         46.655611 Ang**3

siesta: Pressure (static):
siesta:                Solid            Molecule  Units
siesta:          -0.00045758          0.00146069  Ry/Bohr**3
siesta:          -0.04201321          0.13411466  eV/Ang**3
siesta:         -67.31257901        214.87537549  kBar
(Free)E+ p_basis*V_orbitals  =        -234.055615
(Free)Eharris+ p_basis*V_orbitals  =        -234.055615

cite: Please see "aiida.bib" for an exhaustive BiBTeX file.
cite: Please clearly indicate Siesta version in published work: NO_VERSION_LABEL_AVAILABLE
cite: This calculation has made use of the following articles
cite: which are encouraged to be cited in a published work.
        Primary SIESTA paper
          DOI: www.doi.org/10.1088/0953-8984/14/11/302

 global_section                   1      18.809  100.00
  siesta                          1      18.809  100.00
   Setup                          1       0.169    0.90
    bands                         1       0.000    0.00
    KSV_init                      1       0.000    0.00
   IterGeom                       1      18.627   99.03
    geom_init                     1       0.824    4.38
     state_init                   1       0.035    0.19
      hsparse                     1       0.000    0.00
      overlap                     1       0.019    0.10
     Setup_H0                     1       0.744    3.95
      naefs                       1       0.000    0.00
      MolMec                      1       0.000    0.00
      kinefsm                     1       0.015    0.08
      nlefsm                      1       0.182    0.97
      DHSCF_Init                  1       0.546    2.90
       DHSCF1                     1       0.043    0.23
        INITMESH                  1       0.000    0.00
       DHSCF2                     1       0.503    2.67
        REMESH                    1       0.270    1.43
         INITMESH                 2       0.210    1.11
          SPLOAD                  2       0.210    1.11
        REORD                     2       0.000    0.00
        PHION                     1       0.094    0.50
        COMM_BSC                  1       0.000    0.00
        POISON                    1       0.001    0.01
         fft                      2       0.001    0.01
     setup_H                      1       0.045    0.24
      DHSCF                       1       0.045    0.24
       DHSCF3                     1       0.045    0.24
        rhoofd                    1       0.015    0.08
        COMM_BSC                  2       0.008    0.04
        POISON                    1       0.001    0.00
         fft                      2       0.001    0.00
        XC                        1       0.008    0.04
         COMM_BSC                 2       0.000    0.00
         GXC-CellXC               1       0.008    0.04
          gridxc@cellXC           1       0.008    0.04
        vmat                      1       0.014    0.07
    IterSCF                      15      17.695   94.08
     compute_dm                  15      17.230   91.60
      diagon                     15      17.229   91.60
       c-eigval                4440       8.438   44.86
        c-buildHS              4440       0.080    0.42
        cdiag                  4440       8.355   44.42
         cdiag1                4440       0.793    4.22
         cdiag2                4440       1.760    9.36
         cdiag3                4440       5.591   29.72
       c-eigvec                4440       8.640   45.94
        cdiag                  4440       8.560   45.51
         cdiag1                4440       0.781    4.15
         cdiag2                4440       1.744    9.27
         cdiag3                4440       5.566   29.59
         cdiag4                4440       0.265    1.41
       c-buildD                4440       0.131    0.69
     setup_H                     15       0.456    2.43
      DHSCF                      15       0.456    2.42
       DHSCF3                    15       0.456    2.42
        rhoofd                   15       0.192    1.02
        COMM_BSC                 30       0.023    0.12
        POISON                   15       0.019    0.10
         fft                     30       0.018    0.10
        XC                       15       0.086    0.46
         COMM_BSC                30       0.002    0.01
         GXC-CellXC              15       0.084    0.45
          gridxc@cellXC          15       0.084    0.45
        vmat                     15       0.135    0.72
     MIXER                       14       0.001    0.01
    PostSCF                       1       0.108    0.57
     naefs                        1       0.000    0.00
     kinefsm                      1       0.000    0.00
     nlefsm                       1       0.004    0.02
     DHSCF                        1       0.097    0.52
      DHSCF3                      1       0.031    0.16
       rhoofd                     1       0.012    0.06
       COMM_BSC                   2       0.001    0.00
       POISON                     1       0.002    0.01
        fft                       2       0.002    0.01
       XC                         1       0.007    0.04
        COMM_BSC                  2       0.000    0.00
        GXC-CellXC                1       0.007    0.04
         gridxc@cellXC            1       0.007    0.04
       vmat                       1       0.010    0.05
      DHSCF4                      1       0.066    0.35
       REORD                     10       0.000    0.00
       COMM_BSC                   2       0.004    0.02
       dfscf                      1       0.039    0.21
     overfsm                      1       0.000    0.00
     MolMec                       1       0.000    0.00
     writeHSX                     1       0.001    0.00
    state_analysis                1       0.000    0.00
    siesta_move                   1       0.000    0.00
   Analysis                       1       0.012    0.06
    optical                       1       0.000    0.00

>> End of run:  12-APR-2024  18:28:11
Job completed