Runtime information:
* Directory : /home/ICN2/jgarridoa/aiida_run/4e/58/aeac-a48b-48ab-8dcb-4b2986eb6395
>> Start of run:  18-APR-2024  22:34:05

reinit: Reading from standard input
reinit: Dumping input in INPUT_TMP.80320
************************** Dump of input data file ****************************
atomiccoordinatesformat Ang
cdfsave True
dminitspinaf False
dmmixingweight 0.025
dmmixscf1 True
dmnumberpulay 10
dmtolerance 1e-05
electronictemperature 50.000 K
geometrymustconverge T
latticeconstant 1.0 Ang
maxscfiterations 1000
meshcutoff 600 Ry
noncollinearspin False
numberofatoms 64
numberofspecies 3
savehs True
solutionmethod diagon
spinorbit False
spinpolarized False
systemlabel aiida
systemname aiida
usetreetimer T
writedmhsnetcdf True
writeorbmom True
xcauthors PBEsol
xcfunctional GGA
xmlwrite T
#
# -- Basis Set Info follows
#
PAO-BasisSize DZP
PAO-SplitNorm 0.15
PAO-EnergyShift 0.005 Ry
#
# -- Structural Info follows
#
%block chemicalspecieslabel
    1     5      B
    2     7      N
    3     6      C
%endblock chemicalspecieslabel
%block lattice-vectors
      7.7894300000       0.0000000000       0.0000000000
      0.0000000000       7.7894300000       0.0000000000
      0.0000000000       0.0000000000       7.7894300000
%endblock lattice-vectors
%block atomiccoordinatesandatomicspecies
      0.7947555429       1.8679053140       1.4315414454    1      B      1
      3.7982039623       7.0107206829       4.6927421035    1      B      2
      5.8804743899       5.4226895888       5.1525521564    1      B      3
      2.7560561226       6.7052192383       1.0840549731    1      B      4
      2.9538297503       1.3576976490       0.4680668487    1      B      5
      0.7068128782       4.7246787665       1.0582719598    1      B      6
      7.4752043938       7.1498399027       1.6708327350    1      B      7
      4.3454114198       1.7226324445       3.7753809324    1      B      8
      7.5068294796       3.9683251135       6.9723187930    1      B      9
      2.3718035407       3.1253529989       2.7109553229    1      B     10
      4.4196446877       3.3421328358       2.0335085958    1      B     11
      2.3006860448       0.1832852879       5.7618413710    1      B     12
      4.3562387275       3.3310718452       6.0497387038    1      B     13
      6.5689821076       1.6830621401       2.3809950681    1      B     14
      3.0428629352       4.7670532657       4.6644664726    1      B     15
      1.3967226933       5.7792896942       4.1512209299    1      B     16
      6.8391195400       6.3328844843       7.1217200604    1      B     17
      4.0378068291       6.7960439921       7.1968880599    1      B     18
      1.6977841628       3.1093067731       6.2319334715    1      B     19
      7.4075142471       1.5500965700       7.4255078304    1      B     20
      7.3772912587       7.7644259297       5.8957416727    1      B     21
      2.0548516340       0.4823993999       3.1034647006    1      B     22
      6.8184775505       4.0815834257       2.4168264461    1      B     23
      4.9847678342       0.9265526985       6.5016814324    1      B     24
      2.2480294980       4.2901843611       7.6017826313    1      B     25
      5.8817206987       5.5456067942       2.8659649799    1      B     26
      0.3735810628       4.2801359964       4.5128062705    1      B     27
      1.2862685759       6.3188635103       7.2471298834    1      B     28
      3.3863767982       5.1145397380       2.0028182416    1      B     29
      7.4022174347       1.8791220932       5.1981203219    1      B     30
      0.9624619708       3.8149512368       3.0416945207    2      N     31
      2.3221848716       1.7019904550       5.9577455355    2      N     32
      6.4128819304       1.1184842537       6.1976599795    2      N     33
      0.3389959936       3.1897715850       5.5998991213    2      N     34
      4.6761506176       5.9494887397       1.9185366090    2      N     35
      2.0879567115       2.6968564546       0.9887902442    2      N     36
      1.0113795912       7.3610113500       6.1473402617    2      N     37
      6.7917598056       4.7801395081       3.9509546846    2      N     38
      2.7880706799       5.9127226301       7.3892090866    2      N     39
      4.6686727648       0.1595275264       3.7757704039    2      N     40
      5.8025800899       4.0325879110       5.9664696971    2      N     41
      1.8955577905       5.6731197633       2.2773956491    2      N     42
      0.8643930471       1.6011952308       3.2878405087    2      N     43
      3.7349537907       3.9083465025       0.6769793613    2      N     44
      4.6547296851       2.0242391741       5.2234359694    2      N     45
      0.1238519370       6.3308592325       0.4788941564    2      N     46
      5.3583488970       6.1263866950       7.4328298946    2      N     47
      0.8231869624       7.2413657052       2.6702166040    2      N     48
      4.5599323220       1.6884368468       0.0858395186    2      N     49
      4.4338993446       5.6345620848       4.7572385839    2      N     50
      3.5869546207       4.1000443748       3.3529601435    2      N     51
      2.8291988703       1.8404086261       3.5307149361    2      N     52
      2.9093521050       0.3442928060       1.7551922619    2      N     53
      6.2468112828       0.1675506393       1.8552085431    2      N     54
      7.0315184610       1.3028600618       3.8193912119    2      N     55
      2.9341224924       4.1300336803       6.0529323701    2      N     56
      2.2259854111       7.2407425508       4.2824728254    2      N     57
      7.0534846536       2.1523752976       1.0099774938    2      N     58
      5.1801267386       2.2117307542       2.6228568696    2      N     59
      3.8355153320       0.0408166132       6.0699912218    2      N     60
      6.9490283973       6.6127587042       4.9386544086    2      N     61
      4.9740184208       7.3848470058       2.3686098744    3      C     62
      6.8598394238       3.7767051355       0.7663241234    3      C     63
      5.2562294697       4.5737196131       0.2742658303    3      C     64
%endblock atomiccoordinatesandatomicspecies
#
# -- K-points Info follows
#
%block kgrid_monkhorst_pack
     8      0      0       0.0000000000
     0      8      0       0.0000000000
     0      0      8       0.0000000000
%endblock kgrid_monkhorst_pack
#
#
maxwalltime 7200000
************************** End of input data file *****************************

reinit: -----------------------------------------------------------------------
reinit: System Name: aiida
reinit: -----------------------------------------------------------------------
reinit: System Label: aiida
reinit: -----------------------------------------------------------------------

initatom: Reading input for the pseudopotentials and atomic orbitals ----------
Species number:   1 Atomic number:    5 Label: B
Species number:   2 Atomic number:    7 Label: N
Species number:   3 Atomic number:    6 Label: C

---- Processing specs for species: B
Ground state valence configuration:   2s02  2p01
Reading pseudopotential information in PSML from:
  B.psml
PSML file version: 1.1
GGA--PBEsol XC_GGA_X_PBE_SOL--XC_GGA_C_PBE_SOL ps
PSML uuid: 4c4355a0-1d5f-11e8-6182-f22cff9f01b0

---- Processing specs for species: N
Ground state valence configuration:   2s02  2p03
Reading pseudopotential information in PSML from:
  N.psml
PSML file version: 1.1
GGA--PBEsol XC_GGA_X_PBE_SOL--XC_GGA_C_PBE_SOL ps
PSML uuid: 56b43770-1d5f-11e8-525f-e1e3c77dc801

---- Processing specs for species: C
Ground state valence configuration:   2s02  2p02
Reading pseudopotential information in PSML from:
  C.psml
PSML file version: 1.1
GGA--PBEsol XC_GGA_X_PBE_SOL--XC_GGA_C_PBE_SOL ps
PSML uuid: 51a02af0-1d5f-11e8-49c3-12b9ebd99919

---- Pseudopotential check for B

Pseudized shells:
2s( 2.00) rc: 1.21
2p( 1.00) rc: 1.21
Valence configuration for ps generation: 2s:2p: Total charge:   3.000000

[...]

Pseudized shells:
2s( 2.00) rc: 1.21
2p( 3.00) rc: 1.36
Valence configuration for ps generation: 2s:2p: Total charge:   5.000000

---- Pseudopotential check for C

Pseudized shells:
2s( 2.00) rc: 1.20
2p( 2.00) rc: 1.26
Valence configuration for ps generation: 2s:2p: Total charge:   4.000000
For B, standard SIESTA heuristics set lmxkb to 3
 (one more than the basis l, including polarization orbitals).
Use PS.lmax or PS.KBprojectors blocks to override.
For N, standard SIESTA heuristics set lmxkb to 3
 (one more than the basis l, including polarization orbitals).
Use PS.lmax or PS.KBprojectors blocks to override.
For C, standard SIESTA heuristics set lmxkb to 3
 (one more than the basis l, including polarization orbitals).
Use PS.lmax or PS.KBprojectors blocks to override.
B pseudopotential only contains V_ls up to l=1 -- lmxkb reset.
N pseudopotential only contains V_ls up to l=1 -- lmxkb reset.
C pseudopotential only contains V_ls up to l=1 -- lmxkb reset.

<basis_specs>
B                    Z=   5    Mass=  10.810        Charge= 0.17977+309
Lmxo=2 Lmxkb= 1    BasisType=split      Semic=F
L=0  Nsemic=0  Cnfigmx=2
          i=1  nzeta=2  polorb=0  (2s)
            splnorm:   0.15000
               vcte:    40.000
               rinn:  -0.90000
               qcoe:    0.0000
               qyuk:    0.0000
               qwid:   0.10000E-01
                rcs:    0.0000      0.0000
            lambdas:    1.0000      1.0000
L=1  Nsemic=0  Cnfigmx=2
          i=1  nzeta=2  polorb=1  (2p)  (to be polarized perturbatively)
            splnorm:   0.15000
               vcte:    40.000
               rinn:  -0.90000
               qcoe:    0.0000
               qyuk:    0.0000
               qwid:   0.10000E-01
                rcs:    0.0000      0.0000
            lambdas:    1.0000      1.0000
L=2  Nsemic=0  Cnfigmx=3
          i=1  nzeta=0  polorb=0  (3d)  (perturbative polarization orbital) (from 2p)
L=0  Nkbl=1  erefs: 0.17977+309
L=1  Nkbl=1  erefs: 0.17977+309
</basis_specs>

Using PAO.SplitTailNorm
atom: Called for B                     (Z =   5)
NOTE: B pseudopotential has channels up to l= 1
NOTE: PAOs with higher l will be generated with V_local
Maximum radius (at nrval) set to   50.00000 8518

read_vps: Pseudopotential generation method:
read_vps: ONCVPSP-3.Hamann's oncvpsp
Valence charge in pseudo generation:    3.00000

read_vps: Pseudopotential includes a core correction:
read_vps: Pseudo-core for xc-correction

xc_check: Exchange-correlation functional:
xc_check: GGA PBEsol
Got Vlocal (oncv-fit) from psml data
Choosing vlocal chloc cutoff:  3.201794
qtot up to nchloc:    3.00023194
atom: Maximum radius for chlocal:    3.20179
atom: Maximum radius for r*vlocal+2*Zval:    3.20179
Reading KB projs from B psml data
Using scalar-relativistic projectors in PSML file

PSML: Kleinman-Bylander projectors:
   l= 0   rc=  1.223468   Ekb= 16.933205
   l= 0   rc=  1.223468   Ekb=  2.495260
   l= 1   rc=  1.223468   Ekb= -7.218359
   l= 1   rc=  1.223468   Ekb= -1.645242

PSML: Total number of  Kleinman-Bylander projectors:   8
atom: -------------------------------------------------------------------------

[...]
outcell: Cell volume (Ang**3)        :    472.6254
<dSpData1D:S at geom step 0
  <sparsity:sparsity for geom step 0
    nrows_g=832 nrows=35 sparsity=.1128 nnzs=78116, refcount: 7>
  <dData1D:(new from dSpData1D) n=78116, refcount: 1>
refcount: 1>
new_DM -- step:     1
Initializing Density Matrix...

Attempting to read DM from file... Failed...
DM filled with atomic data:
<dSpData2D:DM initialized from atoms
  <sparsity:sparsity for geom step 0
    nrows_g=832 nrows=35 sparsity=.1128 nnzs=78116, refcount: 8>
  <dData2D:DM n=78116 m=1, refcount: 1>
refcount: 1>
No. of atoms with KB's overlaping orbs in proc 0. Max # of overlaps:     112     395

InitMesh: MESH = 120 x 120 x 120 = 1728000
InitMesh: Mesh cutoff (required, used) =   600.000   655.923 Ry
New grid distribution [1]: sub = 2
New grid distribution [2]: sub = 2
New grid distribution [3]: sub = 2
Setting up quadratic distribution...

stepf: Fermi-Dirac step function

siesta: Program's energy decomposition (eV):
siesta: Ebs     =     -3081.866539
siesta: Eions   =     19614.105245
siesta: Ena     =      4833.519096
siesta: Ekin    =      8148.140303
siesta: Enl     =      -876.108162
siesta: Eso     =         0.000000
siesta: Edftu   =         0.000000
siesta: DEna    =      -348.496821
siesta: DUscf   =       110.144091
siesta: DUext   =         0.000000
siesta: Ex      =     -3400.919134
siesta: Ec      =      -347.985983
siesta: Exc     =     -3748.905117
siesta: EbV     =         0.000000
siesta: eta*DQ  =         0.000000
siesta: Emadel  =         0.000000
siesta: Emeta   =         0.000000
siesta: Emolmec =         0.000000
siesta: Ekinion =         0.000000
siesta: Eharris =    -11186.807326
siesta: Etot    =    -11495.811856
siesta: FreeEng =    -11495.813440

        iscf     Eharris(eV)        E_KS(eV)     FreeEng(eV)     dDmax    Ef(eV) dHmax(eV)
   scf:    1   -11186.807326   -11495.811856   -11495.813440  1.705274 -6.134321 20.673304
 IterSCF                          1     116.212  100.00
  compute_dm                      1     114.265   98.32
  setup_H                         1       1.927    1.66
  MIXER                           1       0.000    0.00
   scf:    2   -11533.461271   -11515.513835   -11515.515493  0.081378 -6.184685 16.925849
   scf:    3   -11526.621623   -11552.567878   -11552.568815  0.770513 -6.021153 10.450302
   scf:    4   -11558.815587   -11556.471697   -11556.472323  0.106182 -6.069759  6.672025
   scf:    5   -11564.385934   -11561.243647   -11561.244425  0.128741 -6.070566  4.561256
   scf:    6   -11565.208961   -11564.672925   -11564.673770  0.239602 -6.003510  4.014116
   scf:    7   -11567.045030   -11565.987369   -11565.988220  0.053743 -5.954758  2.642732
   scf:    8   -11567.376566   -11566.880629   -11566.881538  0.028873 -5.869768  2.088963
   scf:    9   -11567.189576   -11567.149534   -11567.150408  0.067818 -5.831850  0.616761
   scf:   10   -11567.197287   -11567.209295   -11567.210179  0.017204 -5.778953  0.747560
   scf:   11   -11567.351791   -11567.295444   -11567.296366  0.015514 -5.767613  0.395912
   scf:   12   -11567.341124   -11567.326343   -11567.327266  0.022047 -5.751381  0.260918
   scf:   13   -11567.356685   -11567.348656   -11567.349574  0.017390 -5.735014  0.348762
   scf:   14   -11567.355942   -11567.358260   -11567.359170  0.010702 -5.727513  0.259662
   scf:   15   -11567.371848   -11567.367344   -11567.368267  0.007729 -5.723047  0.070982
   scf:   16   -11567.370250   -11567.369098   -11567.370016  0.002211 -5.721027  0.069568
   scf:   17   -11567.372997   -11567.371389   -11567.372308  0.002726 -5.719327  0.034320
   scf:   18   -11567.372336   -11567.371916   -11567.372835  0.000978 -5.718782  0.027610
   scf:   19   -11567.372571   -11567.372302   -11567.373219  0.001362 -5.718505  0.013745
   scf:   20   -11567.372594   -11567.372472   -11567.373390  0.000434 -5.719121  0.010687
   scf:   21   -11567.372505   -11567.372489   -11567.373407  0.000111 -5.719063  0.009981
   scf:   22   -11567.372592   -11567.372546   -11567.373466  0.000592 -5.718533  0.006472
   scf:   23   -11567.372558   -11567.372553   -11567.373473  0.000127 -5.718647  0.004351
   scf:   24   -11567.372569   -11567.372562   -11567.373482  0.000102 -5.718647  0.003813
   scf:   25   -11567.372567   -11567.372565   -11567.373485  0.000043 -5.718617  0.003219
   scf:   26   -11567.372575   -11567.372570   -11567.373491  0.000091 -5.718588  0.001849
   scf:   27   -11567.372575   -11567.372573   -11567.373493  0.000092 -5.718651  0.001245
   scf:   28   -11567.372574   -11567.372573   -11567.373494  0.000018 -5.718666  0.001065
   scf:   29   -11567.372575   -11567.372574   -11567.373495  0.000093 -5.718747  0.000492
   scf:   30   -11567.372575   -11567.372574   -11567.373495  0.000025 -5.718774  0.000323
   scf:   31   -11567.372575   -11567.372575   -11567.373495  0.000008 -5.718782  0.000299

SCF Convergence by DM+H criterion
max |DM_out - DM_in|         :     0.0000083710
max |H_out - H_in|      (eV) :     0.0002987671
SCF cycle converged after 31 iterations

Using DM_out to compute the final energy and forces
No. of atoms with KB's overlaping orbs in proc 0. Max # of overlaps:     112     395

siesta: E_KS(eV) =           -11567.3726

siesta: E_KS - E_eggbox =    -11567.3726

siesta: Atomic forces (eV/Ang):
   Tot   -0.000958   -0.001099   -0.000776
   Max    6.409705
   Res    2.341856    sqrt( Sum f_i^2 / 3N )
   Max    6.409705    constrained

Stress tensor Voigt[x,y,z,yz,xz,xy] (kbar):      210.97       52.81      207.72       -7.18       -3.63        3.29
(Free)E + p*V (eV/cell)   -11613.7357
Target enthalpy (eV/cell)   -11567.3735

siesta: Program's energy decomposition (eV):
siesta: Ebs     =     -3616.298549
siesta: Eions   =     19614.105245
siesta: Ena     =      4833.519096
siesta: Ekin    =      7693.472717
siesta: Enl     =      -717.300614
siesta: Eso     =         0.000000
siesta: Edftu   =         0.000000
siesta: DEna    =      -116.676284
siesta: DUscf   =        14.247706
siesta: DUext   =         0.000000
siesta: Ex      =     -3310.858762
siesta: Ec      =      -349.671189
siesta: Exc     =     -3660.529951
siesta: EbV     =         0.000000
siesta: eta*DQ  =         0.000000
siesta: Emadel  =         0.000000
siesta: Emeta   =         0.000000
siesta: Emolmec =         0.000000
siesta: Ekinion =         0.000000
siesta: Eharris =    -11567.372575
siesta: Etot    =    -11567.372575
siesta: FreeEng =    -11567.373495

siesta: Final energy (eV):
siesta:  Band Struct. =   -3616.298549
siesta:       Kinetic =    7693.472717
siesta:       Hartree =    2099.391205
siesta:         Edftu =       0.000000
siesta:       Eso     =       0.000000
siesta:    Ext. field =       0.000000
siesta:         Exch. =   -3310.858762
siesta:         Corr. =    -349.671189
siesta:     Bulk bias =       0.000000
siesta:   Exch.-corr. =   -3660.529951
siesta:  Ion-electron =  -11359.419074
siesta:       Ion-ion =   -6340.287473
siesta:       Ekinion =       0.000000
siesta: D3 dispersion =       0.000000
siesta:         Total =  -11567.372575
siesta:         Fermi =      -5.718782

siesta: Atomic forces (eV/Ang):
siesta:      1    0.304975    1.482480    0.111362
siesta:      2    2.330595    0.929767   -1.467638
siesta:      3   -1.071610   -0.915256   -0.995897
siesta:      4   -1.226330    1.524502    1.647537
siesta:      5    3.470522    2.538828    3.020192
siesta:      6    0.241145    2.360282    0.128685
siesta:      7    1.755826    0.176482    0.746534
siesta:      8    0.138534   -2.316888    0.892853
siesta:      9   -2.610168    0.044491   -2.418996
siesta:     10   -0.339486   -1.382179    1.746823
siesta:     11   -0.590202   -1.339513    1.439893
siesta:     12   -0.537894    3.429578   -1.630897
siesta:     13    2.201430   -1.394473   -1.504886
siesta:     14   -4.721706   -3.337452    0.950775
siesta:     15    3.364363    0.808745    0.001925
siesta:     16    2.488245    3.157804   -1.125624
siesta:     17   -1.448257   -1.287072    0.120361
siesta:     18    0.708611   -2.219257   -2.271017
siesta:     19    2.905288   -4.529431   -2.631684
siesta:     20   -1.316293   -0.369449    1.351112
siesta:     21    0.060194   -3.922742   -1.071636
siesta:     22   -0.310829   -0.467444    1.088219
siesta:     23    1.211888    1.334152    1.114298
siesta:     24   -4.236464    5.385236   -0.346946
siesta:     25    2.021068    0.709293    1.181895
siesta:     26    0.681796   -2.075638    0.385928
siesta:     27    0.552844    0.696181   -4.345666
siesta:     28   -0.060143    3.202480   -1.573465
siesta:     29    0.674866   -0.641917    2.869731
siesta:     30   -3.073012   -0.120978   -2.437649
siesta:     31   -1.644906   -1.995570    0.642744
siesta:     32   -1.979571    1.878423    1.191121
siesta:     33    6.409705    0.685367    2.821448
siesta:     34    0.184953    2.347231    0.497727
siesta:     35    1.984454    3.219072    3.912463
siesta:     36   -1.873778   -3.941337    1.863188
siesta:     37    0.910457   -1.342832    5.054385
siesta:     38   -1.974220   -1.442402   -3.058064
siesta:     39   -2.555834    2.843379    4.225013
siesta:     40   -0.335706   -2.144409   -4.080362
siesta:     41   -1.164514    0.335314    3.501801
siesta:     42    0.788895    0.369808   -3.680506
siesta:     43   -3.805799   -0.914865   -3.231549
siesta:     44    5.173687    4.084397    3.801788
siesta:     45   -2.440252    3.640897    2.285301
siesta:     46   -0.580421   -2.187489   -1.149160
siesta:     47    0.413740   -1.840355    0.539960
siesta:     48   -2.694094   -0.568037   -1.673197
siesta:     49   -3.267009   -2.165558   -2.832988
siesta:     50   -2.132184    2.366192   -0.244901
siesta:     51   -2.692589   -0.897043   -5.846929
siesta:     52    1.078351    1.172065   -1.346976
siesta:     53   -0.376869   -2.785888   -5.640037
siesta:     54   -2.558400   -2.045125    0.324689
siesta:     55    4.659499    2.925482    0.965688
siesta:     56   -0.312126   -4.078159   -0.345203
siesta:     57    3.286644   -0.914837    1.405303
siesta:     58    2.755875    2.285770   -0.457221
siesta:     59   -0.668552    3.715349   -1.446683
siesta:     60    1.326963   -5.926992    2.273323
siesta:     61   -1.245596    0.112225    4.882161
siesta:     62    1.884619    0.975926    2.885037
siesta:     63    0.266089   -0.081087   -0.152566
siesta:     64   -0.392268    0.853376   -2.863697
siesta: ----------------------------------------
siesta:    Tot   -0.000958   -0.001099   -0.000776

siesta: Stress tensor (static) (eV/Ang**3):
siesta:     0.131679    0.002053   -0.002263
siesta:     0.002053    0.032960   -0.004482
siesta:    -0.002263   -0.004481    0.129646

siesta: Cell volume =        472.625377 Ang**3

siesta: Pressure (static):
siesta:                Solid            Molecule  Units
siesta:          -0.00106839         -0.00109944  Ry/Bohr**3
siesta:          -0.09809502         -0.10094555  eV/Ang**3
siesta:        -157.16554542       -161.73259552  kBar
(Free)E+ p_basis*V_orbitals  =      -11531.192248
(Free)Eharris+ p_basis*V_orbitals  =      -11531.192248

cite: Please see "aiida.bib" for an exhaustive BiBTeX file.
cite: Please clearly indicate Siesta version in published work: NO_VERSION_LABEL_AVAILABLE
cite: This calculation has made use of the following articles
cite: which are encouraged to be cited in a published work.
        Primary SIESTA paper
          DOI: www.doi.org/10.1088/0953-8984/14/11/302

 global_section                   1    3644.570  100.00
  siesta                          1    3644.570  100.00
   Setup                          1       0.226    0.01
    bands                         1       0.000    0.00
    KSV_init                      1       0.000    0.00
   IterGeom                       1    3644.079   99.99
    geom_init                     1       7.861    0.22
     state_init                   1       0.906    0.02
      hsparse                     1       0.030    0.00
      overlap                     1       0.298    0.01
     Setup_H0                     1       4.896    0.13
      naefs                       1       0.003    0.00
      MolMec                      1       0.000    0.00
      kinefsm                     1       0.297    0.01
      nlefsm                      1       1.450    0.04
      DHSCF_Init                  1       3.145    0.09
       DHSCF1                     1       0.073    0.00
        INITMESH                  1       0.000    0.00
       DHSCF2                     1       3.072    0.08
        REMESH                    1       1.339    0.04
         INITMESH                 2       0.991    0.03
          SPLOAD                  2       0.991    0.03
        REORD                     2       0.000    0.00
        PHION                     1       1.309    0.04
        COMM_BSC                  1       0.001    0.00
        POISON                    1       0.012    0.00
         fft                      2       0.011    0.00
     setup_H                      1       2.058    0.06
      DHSCF                       1       2.057    0.06
       DHSCF3                     1       2.057    0.06
        rhoofd                    1       0.974    0.03
        COMM_BSC                  2       0.211    0.01
        POISON                    1       0.009    0.00
         fft                      2       0.008    0.00
        XC                        1       0.079    0.00
         COMM_BSC                 2       0.002    0.00
         GXC-CellXC               1       0.077    0.00
          gridxc@cellXC           1       0.077    0.00
        vmat                      1       0.782    0.02
    IterSCF                      31    3627.253   99.52
     compute_dm                  31    3566.211   97.85
      diagon                     31    3566.187   97.85
       c-eigval                9176    1649.793   45.27
        c-buildHS              9176       9.864    0.27
        cdiag                  9176    1639.916   45.00
         cdiag1                9176      92.764    2.55
         cdiag2                9176     322.809    8.86
         cdiag3                9176    1206.210   33.10
       c-eigvec                9176    1717.226   47.12
        cdiag                  9176    1707.862   46.86
         cdiag1                9176      93.612    2.57
         cdiag2                9176     324.134    8.89
         cdiag3                9176    1213.280   33.29
         cdiag4                9176      63.059    1.73
       c-buildD                9176     197.930    5.43
     setup_H                     31      60.222    1.65
      DHSCF                      31      60.196    1.65
       DHSCF3                    31      60.196    1.65
        rhoofd                   31      34.176    0.94
        COMM_BSC                 62       2.890    0.08
        POISON                   31       0.475    0.01
         fft                     62       0.448    0.01
        XC                       31       2.353    0.06
         COMM_BSC                62       0.040    0.00
         GXC-CellXC              31       2.310    0.06
          gridxc@cellXC          31       2.310    0.06
        vmat                     31      20.250    0.56
     MIXER                       30       0.150    0.00
    PostSCF                       1       8.950    0.25
     naefs                        1       0.002    0.00
     kinefsm                      1       0.020    0.00
     nlefsm                       1       0.134    0.00
     DHSCF                        1       7.959    0.22
      DHSCF3                      1       1.940    0.05
       rhoofd                     1       0.986    0.03
       COMM_BSC                   2       0.197    0.01
       POISON                     1       0.008    0.00
        fft                       2       0.007    0.00
       XC                         1       0.077    0.00
        COMM_BSC                  2       0.001    0.00
        GXC-CellXC                1       0.076    0.00
         gridxc@cellXC            1       0.076    0.00
       vmat                       1       0.670    0.02
      DHSCF4                      1       6.019    0.17
       REORD                     10       0.001    0.00
       COMM_BSC                   2       0.016    0.00
       dfscf                      1       5.806    0.16
     overfsm                      1       0.020    0.00
     MolMec                       1       0.000    0.00
     writeHSX                     1       0.034    0.00
    state_analysis                1       0.001    0.00
    siesta_move                   1       0.000    0.00
   Analysis                       1       0.258    0.01
    optical                       1       0.000    0.00

>> End of run:  18-APR-2024  23:34:50
Job completed