Runtime information:
* Directory : /home/ICN2/jgarridoa/aiida_run/ad/2d/521b-5d3b-43da-b6c1-8611adb9866b
>> Start of run:  17-APR-2024   1:47:16

reinit: Reading from standard input
reinit: Dumping input in INPUT_TMP.70801
************************** Dump of input data file ****************************
atomiccoordinatesformat Ang
cdfsave True
dminitspinaf False
dmmixingweight 0.025
dmmixscf1 True
dmnumberpulay 10
dmtolerance 1e-05
electronictemperature 50.000 K
geometrymustconverge T
latticeconstant 1.0 Ang
maxscfiterations 1000
meshcutoff 400 Ry
noncollinearspin False
numberofatoms 8
numberofspecies 1
savehs True
solutionmethod diagon
spinorbit False
spinpolarized False
systemlabel aiida
systemname aiida
usetreetimer T
writedmhsnetcdf True
writeorbmom True
xcauthors PBEsol
xcfunctional GGA
xmlwrite T
#
# -- Basis Set Info follows
#
PAO-BasisSize DZP
PAO-SplitNorm 0.15
PAO-EnergyShift 0.005 Ry
#
# -- Structural Info follows
#
%block chemicalspecieslabel
    1     6      C
%endblock chemicalspecieslabel
%block lattice-vectors
      4.2017800000       0.0000000000       0.0000000000
      0.0000000000       2.6259000000       0.0000000000
      0.0000000000       0.0000000000       7.4629900000
%endblock lattice-vectors
%block atomiccoordinatesandatomicspecies
      0.0063026700       0.0118953270       0.0144035707    1      C      1
      0.6998484768       1.4135744880       7.4628407402    1      C      2
      2.8204448250       0.0013654680       0.0025374166    1      C      3
      2.1122348060       1.4236842030       0.0132841222    1      C      4
      0.0004621958       2.6253485610       3.6302968556    1      C      5
      0.6998484768       1.4135744880       3.6302968556    1      C      6
      2.8007384768       2.6253485610       3.6302968556    1      C      7
      2.1013521958       1.4135744880       3.6302968556    1      C      8
%endblock atomiccoordinatesandatomicspecies
#
# -- K-points Info follows
#
%block kgrid_monkhorst_pack
    10      0      0       0.0000000000
     0     10      0       0.0000000000
     0      0     10       0.0000000000
%endblock kgrid_monkhorst_pack
#
#
maxwalltime 7200000
************************** End of input data file *****************************

reinit: -----------------------------------------------------------------------
reinit: System Name: aiida
reinit: -----------------------------------------------------------------------
reinit: System Label: aiida
reinit: -----------------------------------------------------------------------

initatom: Reading input for the pseudopotentials and atomic orbitals ----------
Species number:   1 Atomic number:    6 Label: C

---- Processing specs for species: C
Ground state valence configuration:   2s02  2p02
Reading pseudopotential information in PSML from:
  C.psml
PSML file version: 1.1
GGA--PBEsol XC_GGA_X_PBE_SOL--XC_GGA_C_PBE_SOL ps
PSML uuid: 51a02af0-1d5f-11e8-49c3-12b9ebd99919

---- Pseudopotential check for C

Pseudized shells:
2s( 2.00) rc: 1.20
2p( 2.00) rc: 1.26
Valence configuration for ps generation: 2s:2p: Total charge:   4.000000
For C, standard SIESTA heuristics set lmxkb to 3
 (one more than the basis l, including polarization orbitals).
Use PS.lmax or PS.KBprojectors blocks to override.
C pseudopotential only contains V_ls up to l=1 -- lmxkb reset.

<basis_specs>
C                    Z=   6    Mass=  12.011        Charge= 0.17977+309
Lmxo=2 Lmxkb= 1    BasisType=split      Semic=F
L=0  Nsemic=0  Cnfigmx=2
          i=1  nzeta=2  polorb=0  (2s)
            splnorm:   0.15000
               vcte:    40.000
               rinn:  -0.90000
               qcoe:    0.0000
               qyuk:    0.0000
               qwid:   0.10000E-01
                rcs:    0.0000      0.0000
            lambdas:    1.0000      1.0000
L=1  Nsemic=0  Cnfigmx=2
          i=1  nzeta=2  polorb=1  (2p)  (to be polarized perturbatively)
            splnorm:   0.15000
               vcte:    40.000
               rinn:  -0.90000
               qcoe:    0.0000
               qyuk:    0.0000
               qwid:   0.10000E-01
                rcs:    0.0000      0.0000
            lambdas:    1.0000      1.0000
L=2  Nsemic=0  Cnfigmx=3
          i=1  nzeta=0  polorb=0  (3d)  (perturbative polarization orbital) (from 2p)
L=0  Nkbl=1  erefs: 0.17977+309
L=1  Nkbl=1  erefs: 0.17977+309
</basis_specs>

Using PAO.SplitTailNorm
atom: Called for C                     (Z =   6)
NOTE: C pseudopotential has channels up to l= 1
NOTE: PAOs with higher l will be generated with V_local
Maximum radius (at nrval) set to   50.00000 8518

read_vps: Pseudopotential generation method:
read_vps: ONCVPSP-3.Hamann's oncvpsp
Valence charge in pseudo generation:    4.00000

read_vps: Pseudopotential includes a core correction:
read_vps: Pseudo-core for xc-correction

xc_check: Exchange-correlation functional:
xc_check: GGA PBEsol
Got Vlocal (oncv-fit) from psml data
Choosing vlocal chloc cutoff:  4.114026
qtot up to nchloc:    4.00001066
atom: Maximum radius for chlocal:    4.11403
atom: Maximum radius for r*vlocal+2*Zval:    4.11403
Reading KB projs from C psml data
Using scalar-relativistic projectors in PSML file

PSML: Kleinman-Bylander projectors:
   l= 0   rc=  1.219773   Ekb= 12.937878
   l= 0   rc=  1.219773   Ekb=  0.780062
   l= 1   rc=  1.278952   Ekb= -8.359390
   l= 1   rc=  1.278952   Ekb= -1.756905

PSML: Total number of  Kleinman-Bylander projectors:   8
atom: -------------------------------------------------------------------------

atom: SANKEY-TYPE ORBITALS:
atom: Selected multiple-zeta basis: split

SPLIT: Orbitals with angular momentum L= 0

SPLIT: Basis orbitals for state 2s

SPLIT: PAO cut-off radius determined from an
SPLIT: energy shift=  0.005000 Ry
Split based on tail norm

   izeta = 1
                 lambda =    1.000000
                     rc =    4.858714
                 energy =   -0.997375
                kinetic =    0.928233
    potential(screened) =   -1.925608
       potential(ionic) =   -5.470603

   izeta = 2
                 rmatch =    3.157143
              splitnorm =    0.150000
                 energy =   -0.747328
                kinetic =    1.689643
    potential(screened) =   -2.436971
       potential(ionic) =   -6.275825

SPLIT: Orbitals with angular momentum L= 1

SPLIT: Basis orbitals for state 2p

SPLIT: PAO cut-off radius determined from an
SPLIT: energy shift=  0.005000 Ry
Split based on tail norm

   izeta = 1
                 lambda =    1.000000
                     rc =    5.984425
                 energy =   -0.378962
                kinetic =    2.440834
    potential(screened) =   -2.819796
       potential(ionic) =   -6.224005

   izeta = 2
                 rmatch =    3.889428
              splitnorm =    0.150000
                 energy =   -0.273331
                kinetic =    3.469746
    potential(screened) =   -3.743077
       potential(ionic) =   -7.475055
*Note: V_local used for l= 2

** Using vlocal for PAOs with L= 2

POLgen: Perturbative polarization orbital with L=  2

POLgen: Polarization orbital for state 2p
*Note: V_local used for lpol= 2

** Using vlocal for PAOs with L= 2
Split based on tail norm

   izeta = 1
                     rc =    5.984425
                 energy =    1.076317
                kinetic =    2.134413
    potential(screened) =   -1.058097
       potential(ionic) =   -3.835567
atom: Total number of Sankey-type orbitals: 13

atm_pop: Valence configuration (for local Pseudopot. screening):
 2s( 2.00)
 2p( 2.00)
 3d( 0.00)
Vna: chval, zval:    4.00000   4.00000

Vna:  Cut-off radius for the neutral-atom potential:   5.984425
comcore: Pseudo-core radius Rcore=  1.671741

atom: _________________________________________________________________________

prinput: Basis input

PAO.BasisType split

%block ChemicalSpeciesLabel
    1    6 C                       # Species index, atomic number, species label
%endblock ChemicalSpeciesLabel

%block PAO.Basis                 # Define Basis set
# WARNING: This information might be incomplete!
C                     2                    # Species label, number of l-shells
 n=2   0   2                         # n, l, Nzeta
   4.859      3.157
   1.000      1.000
 n=2   1   2 P   1                   # n, l, Nzeta, Polarization, NzetaPol
   5.984      3.889
   1.000      1.000
%endblock PAO.Basis

prinput: ----------------------------------------------------------------------

coor:   Atomic-coordinates input format  =     Cartesian coordinates
coor:                                          (in Angstroms)

siesta: Atomic coordinates (Bohr) and species
siesta:      0.01191   0.02248   0.02722  1        1
siesta:      1.32252   2.67127  14.10273  1        2
siesta:      5.32987   0.00258   0.00480  1        3
siesta:      3.99155   2.69037   0.02510  1        4
siesta:      0.00087   4.96119   6.86027  1        5
siesta:      1.32252   2.67127   6.86027  1        6
siesta:      5.29263   4.96119   6.86027  1        7
siesta:      3.97098   2.67127   6.86027  1        8

siesta: System type = bulk

initatomlists: Number of atoms, orbitals, and projectors:      8   104    64

siesta: ******************** Simulation parameters ****************************
siesta:
siesta: The following are some of the parameters of the simulation.
siesta: A complete list of the parameters used, including default values,
siesta: can be found in file out.fdf
siesta:
redata: Spin configuration                          = none
redata: Number of spin components                   = 1
redata: Time-Reversal Symmetry                      = T
redata: Spin spiral                                 = F
redata: Long output                                 =   F
redata: Number of Atomic Species                    =        1
redata: Charge density info will appear in .RHO file
redata: Write Mulliken Pop.                         = NO
redata: Matel table size (NRTAB)                    =     1024
redata: Mesh Cutoff                                 =   400.0000 Ry
redata: Net charge of the system                    =     0.0000 |e|
redata: Min. number of SCF Iter                     =        0
redata: Max. number of SCF Iter                     =     1000
redata: SCF convergence failure will abort job
redata: SCF mix quantity                            = Hamiltonian
redata: Mix DM or H after convergence               =   F
redata: Recompute H after scf cycle                 =   F
redata: Mix DM in first SCF step                    =   T
redata: Write Pulay info on disk                    =   F
redata: New DM Occupancy tolerance                  = 0.000000000001
redata: No kicks to SCF
redata: DM Mixing Weight for Kicks                  =     0.5000
redata: Require Harris convergence for SCF          =   F
redata: Harris energy tolerance for SCF             =     0.000100 eV
redata: Require DM convergence for SCF              =   T
redata: DM tolerance for SCF                        =     0.000010
redata: Require EDM convergence for SCF             =   F
redata: EDM tolerance for SCF                       =     0.001000 eV
redata: Require H convergence for SCF               =   T
redata: Hamiltonian tolerance for SCF               =     0.001000 eV
redata: Require (free) Energy convergence for SCF   =   F
redata: (free) Energy tolerance for SCF             =     0.000100 eV
redata: Using DFT-D3 dispersion                     =   F
redata: Using Saved Data (generic)                  =   F
redata: Use continuation files for DM               =   T
redata: Neglect nonoverlap interactions             =   F
redata: Method of Calculation                       = Diagonalization
redata: Electronic Temperature                      =    50.0000 K
redata: Fix the spin of the system                  =   F
redata: Max. number of TDED Iter                    =        1
redata: Number of TDED substeps                     =        3
redata: Dynamics option                             = Single-point calculation
mix.SCF: Pulay mixing                            = Pulay
mix.SCF:    Variant                              = stable
mix.SCF:    History steps                        = 10
mix.SCF:    Linear mixing weight                 =     0.025000
mix.SCF:    Mixing weight                        =     0.025000
mix.SCF:    SVD condition                        = 0.1000E-07
redata: ***********************************************************************

%block SCF.Mixers
  Pulay
%endblock SCF.Mixers

%block SCF.Mixer.Pulay
  # Mixing method
  method pulay
  variant stable

  # Mixing options
  weight 0.0250
  weight.linear 0.0250
  history 10
%endblock SCF.Mixer.Pulay

DM_history_depth set to one: no extrapolation allowed by default for geometry relaxation
Size of DM history Fstack: 1
Total number of electrons:    32.000000
Total ionic charge:    32.000000

* ProcessorY, Blocksize:    3   4

* Orbital distribution balance (max,min):     8     4

k-point displ. along   1 input, could be:     0.00    0.50
k-point displ. along   2 input, could be:     0.00    0.50
k-point displ. along   3 input, could be:     0.00    0.50
 Kpoints in:          600 . Kpoints trimmed:          560

siesta: k-grid: Number of k-points = 560
siesta: k-points from Monkhorst-Pack grid
siesta: k-cutoff (effective) =    13.129 Ang
siesta: k-point supercell and displacements
siesta: k-grid:    10     0     0      0.000
siesta: k-grid:     0    10     0      0.000
siesta: k-grid:     0     0    10      0.000

diag: Algorithm                                     = D&C
diag: Parallel over k                               =   F
diag: Use parallel 2D distribution                  =   T
diag: Parallel block-size                           = 4
diag: Parallel distribution                         =     4 x     6
diag: Used triangular part                          = Lower
diag: Absolute tolerance                            =  0.100E-15
diag: Orthogonalization factor                      =  0.100E-05

superc: Internal auxiliary supercell:     5 x     5 x     3  =      75
superc: Number of atoms, orbitals, and projectors:    600   7800   4800

ts: **************************************************************
ts: Save H and S matrices                           =    F
ts: Save DM and EDM matrices                        =    F
ts: Only save the overlap matrix S                  =    F
ts: **************************************************************

************************ Begin: TS CHECKS AND WARNINGS ************************
************************ End: TS CHECKS AND WARNINGS **************************

                        Single-point calculation

superc: Internal auxiliary supercell:     5 x     5 x     3  =      75
superc: Number of atoms, orbitals, and projectors:    600   7800   4800

outcell: Unit cell vectors (Ang):
        4.201780    0.000000    0.000000
        0.000000    2.625900    0.000000
        0.000000    0.000000    7.462990

outcell: Cell vector modules (Ang)   :    4.201780    2.625900    7.462990
outcell: Cell angles (23,13,12) (deg):     90.0000     90.0000     90.0000
outcell: Cell volume (Ang**3)        :     82.3426
<dSpData1D:S at geom step 0
  <sparsity:sparsity for geom step 0
    nrows_g=104 nrows=8 sparsity=.7028 nnzs=7601, refcount: 7>
  <dData1D:(new from dSpData1D) n=7601, refcount: 1>
refcount: 1>
new_DM -- step:     1
Initializing Density Matrix...

Attempting to read DM from file... Failed...
DM filled with atomic data:
<dSpData2D:DM initialized from atoms
  <sparsity:sparsity for geom step 0
    nrows_g=104 nrows=8 sparsity=.7028 nnzs=7601, refcount: 8>
  <dData2D:DM n=7601 m=1, refcount: 1>
refcount: 1>
No. of atoms with KB's overlaping orbs in proc 0. Max # of overlaps:      33     199

InitMesh: MESH = 54 x 32 x 90 = 155520
InitMesh: Mesh cutoff (required, used) =   400.000   401.940 Ry
New grid distribution [1]: sub = 2
New grid distribution [2]: sub = 2
New grid distribution [3]: sub = 2
Setting up quadratic distribution...

stepf: Fermi-Dirac step function

siesta: Program's energy decomposition (eV):
siesta: Ebs     =      -437.623477
siesta: Eions   =      2258.737412
siesta: Ena     =       613.488094
siesta: Ekin    =       899.066683
siesta: Enl     =       -48.161813
siesta: Eso     =         0.000000
siesta: Edftu   =         0.000000
siesta: DEna    =       -50.970338
siesta: DUscf   =         4.105440
siesta: DUext   =         0.000000
siesta: Ex      =      -417.728246
siesta: Ec      =       -43.861471
siesta: Exc     =      -461.589717
siesta: EbV     =         0.000000
siesta: eta*DQ  =         0.000000
siesta: Emadel  =         0.000000
siesta: Emeta   =         0.000000
siesta: Emolmec =         0.000000
siesta: Ekinion =         0.000000
siesta: Eharris =     -1294.585143
siesta: Etot    =     -1302.799062
siesta: FreeEng =     -1302.799063

        iscf     Eharris(eV)        E_KS(eV)     FreeEng(eV)     dDmax    Ef(eV) dHmax(eV)
   scf:    1    -1294.585143    -1302.799062    -1302.799063  1.777611 -6.339311  2.620511
 IterSCF                          1       5.812  100.00
  compute_dm                      1       5.721   98.43
  setup_H                         1       0.089    1.53
  MIXER                           1       0.000    0.00
   scf:    2    -1302.885764    -1302.842519    -1302.842521  0.004488 -6.303412  2.525200
   scf:    3    -1303.883546    -1303.451241    -1303.451241  0.108381 -5.338733  0.134207
   scf:    4    -1303.433204    -1303.443849    -1303.443849  0.011076 -5.455191  0.290252
   scf:    5    -1303.461686    -1303.453908    -1303.453908  0.010539 -5.359286  0.023961
   scf:    6    -1303.454719    -1303.454358    -1303.454358  0.001558 -5.366212  0.011071
   scf:    7    -1303.454387    -1303.454376    -1303.454376  0.000580 -5.362929  0.016648
   scf:    8    -1303.454394    -1303.454387    -1303.454387  0.000435 -5.375501  0.003660
   scf:    9    -1303.454388    -1303.454388    -1303.454388  0.000163 -5.374266  0.002593
mix: Pulay -- inversion failed, > SVD [rank/size] 6 / 8
   scf:   10    -1303.454389    -1303.454388    -1303.454388  0.000063 -5.375166  0.000505
mix: Pulay -- inversion failed, > SVD [rank/size] 6 / 9
   scf:   11    -1303.454388    -1303.454388    -1303.454388  0.000001 -5.375175  0.000481

SCF Convergence by DM+H criterion
max |DM_out - DM_in|         :     0.0000009505
max |H_out - H_in|      (eV) :     0.0004812605
SCF cycle converged after 11 iterations

Using DM_out to compute the final energy and forces
No. of atoms with KB's overlaping orbs in proc 0. Max # of overlaps:      33     199

siesta: E_KS(eV) =            -1303.4544

siesta: E_KS - E_eggbox =     -1303.4544

siesta: Atomic forces (eV/Ang):
   Tot   -0.001042   -0.002238   -0.000715
   Max    3.995879
   Res    2.164291    sqrt( Sum f_i^2 / 3N )
   Max    3.995879    constrained

Stress tensor Voigt[x,y,z,yz,xz,xy] (kbar):     -229.34      341.67        3.74       -0.07       -0.30       -2.52
(Free)E + p*V (eV/cell)    -1305.4428
Target enthalpy (eV/cell)    -1303.4544

siesta: Program's energy decomposition (eV):
siesta: Ebs     =      -457.548563
siesta: Eions   =      2258.737412
siesta: Ena     =       613.488094
siesta: Ekin    =       873.827557
siesta: Enl     =       -43.467103
siesta: Eso     =         0.000000
siesta: Edftu   =         0.000000
siesta: DEna    =       -34.213358
siesta: DUscf   =         2.491562
siesta: DUext   =         0.000000
siesta: Ex      =      -412.979974
siesta: Ec      =       -43.863754
siesta: Exc     =      -456.843728
siesta: EbV     =         0.000000
siesta: eta*DQ  =         0.000000
siesta: Emadel  =         0.000000
siesta: Emeta   =         0.000000
siesta: Emolmec =         0.000000
siesta: Ekinion =         0.000000
siesta: Eharris =     -1303.454388
siesta: Etot    =     -1303.454388
siesta: FreeEng =     -1303.454388

siesta: Final energy (eV):
siesta:  Band Struct. =    -457.548563
siesta:       Kinetic =     873.827557
siesta:       Hartree =     446.602669
siesta:         Edftu =       0.000000
siesta:       Eso     =       0.000000
siesta:    Ext. field =       0.000000
siesta:         Exch. =    -412.979974
siesta:         Corr. =     -43.863754
siesta:     Bulk bias =       0.000000
siesta:   Exch.-corr. =    -456.843728
siesta:  Ion-electron =   -1722.734505
siesta:       Ion-ion =    -444.306381
siesta:       Ekinion =       0.000000
siesta: D3 dispersion =       0.000000
siesta:         Total =   -1303.454388
siesta:         Fermi =      -5.375175

siesta: Atomic forces (eV/Ang):
siesta:      1    1.198063    3.208560   -0.191590
siesta:      2    0.066388   -3.207248    0.186164
siesta:      3   -1.457041    3.993665    0.143233
siesta:      4    0.192272   -3.995879   -0.172088
siesta:      5    0.576983    3.686470    0.008715
siesta:      6   -0.575712   -3.687192    0.007846
siesta:      7   -0.576567    3.720460    0.008301
siesta:      8    0.574571   -3.721073    0.008705
siesta: ----------------------------------------
siesta:    Tot   -0.001042   -0.002238   -0.000715

siesta: Stress tensor (static) (eV/Ang**3):
siesta:    -0.143143   -0.001573   -0.000188
siesta:    -0.001573    0.213256   -0.000045
siesta:    -0.000188   -0.000045    0.002332

siesta: Cell volume =         82.342558 Ang**3

siesta: Pressure (static):
siesta:                Solid            Molecule  Units
siesta:          -0.00026301         -0.00007996  Ry/Bohr**3
siesta:          -0.02414811         -0.00734120  eV/Ang**3
siesta:         -38.68953267        -11.76190347  kBar
(Free)E+ p_basis*V_orbitals  =       -1299.526564
(Free)Eharris+ p_basis*V_orbitals  =       -1299.526564

cite: Please see "aiida.bib" for an exhaustive BiBTeX file.
cite: Please clearly indicate Siesta version in published work: NO_VERSION_LABEL_AVAILABLE
cite: This calculation has made use of the following articles
cite: which are encouraged to be cited in a published work.
        Primary SIESTA paper
          DOI: www.doi.org/10.1088/0953-8984/14/11/302

 global_section                   1      65.112  100.00
  siesta                          1      65.112  100.00
   Setup                          1       0.086    0.13
    bands                         1       0.000    0.00
    KSV_init                      1       0.000    0.00
   IterGeom                       1      64.956   99.76
    geom_init                     1       0.485    0.75
     state_init                   1       0.060    0.09
      hsparse                     1       0.002    0.00
      overlap                     1       0.027    0.04
     Setup_H0                     1       0.320    0.49
      naefs                       1       0.000    0.00
      MolMec                      1       0.000    0.00
      kinefsm                     1       0.033    0.05
      nlefsm                      1       0.050    0.08
      DHSCF_Init                  1       0.236    0.36
       DHSCF1                     1       0.024    0.04
        INITMESH                  1       0.000    0.00
       DHSCF2                     1       0.212    0.33
        REMESH                    1       0.062    0.09
         INITMESH                 2       0.027    0.04
          SPLOAD                  2       0.027    0.04
        REORD                     2       0.000    0.00
        PHION                     1       0.103    0.16
        COMM_BSC                  1       0.000    0.00
        POISON                    1       0.001    0.00
         fft                      2       0.001    0.00
     setup_H                      1       0.105    0.16
      DHSCF                       1       0.105    0.16
       DHSCF3                     1       0.105    0.16
        rhoofd                    1       0.053    0.08
        COMM_BSC                  2       0.000    0.00
        POISON                    1       0.001    0.00
         fft                      2       0.001    0.00
        XC                        1       0.010    0.02
         COMM_BSC                 2       0.000    0.00
         GXC-CellXC               1       0.010    0.02
          gridxc@cellXC           1       0.010    0.02
        vmat                      1       0.041    0.06
    IterSCF                      11      64.145   98.51
     compute_dm                  11      63.115   96.93
      diagon                     11      63.115   96.93
       c-eigval                6160      30.021   46.11
        c-buildHS              6160       0.661    1.02
        cdiag                  6160      29.355   45.08
         cdiag1                6160       1.669    2.56
         cdiag2                6160       3.946    6.06
         cdiag3                6160      23.265   35.73
       c-eigvec                6160      31.322   48.10
        cdiag                  6160      30.662   47.09
         cdiag1                6160       1.677    2.58
         cdiag2                6160       3.968    6.09
         cdiag3                6160      23.337   35.84
         cdiag4                6160       1.120    1.72
       c-buildD                6160       1.700    2.61
     setup_H                     11       1.006    1.55
      DHSCF                      11       1.006    1.54
       DHSCF3                    11       1.006    1.54
        rhoofd                   11       0.546    0.84
        COMM_BSC                 22       0.014    0.02
        POISON                   11       0.011    0.02
         fft                     22       0.010    0.02
        XC                       11       0.093    0.14
         COMM_BSC                22       0.001    0.00
         GXC-CellXC              11       0.092    0.14
          gridxc@cellXC          11       0.092    0.14
        vmat                     11       0.340    0.52
     MIXER                       10       0.002    0.00
    PostSCF                       1       0.325    0.50
     naefs                        1       0.000    0.00
     kinefsm                      1       0.002    0.00
     nlefsm                       1       0.014    0.02
     DHSCF                        1       0.229    0.35
      DHSCF3                      1       0.083    0.13
       rhoofd                     1       0.045    0.07
       COMM_BSC                   2       0.004    0.01
       POISON                     1       0.001    0.00
        fft                       2       0.001    0.00
       XC                         1       0.007    0.01
        COMM_BSC                  2       0.000    0.00
        GXC-CellXC                1       0.007    0.01
         gridxc@cellXC            1       0.007    0.01
       vmat                       1       0.026    0.04
      DHSCF4                      1       0.146    0.22
       REORD                     10       0.000    0.00
       COMM_BSC                   2       0.001    0.00
       dfscf                      1       0.128    0.20
     overfsm                      1       0.002    0.00
     MolMec                       1       0.000    0.00
     writeHSX                     1       0.003    0.00
    state_analysis                1       0.001    0.00
    siesta_move                   1       0.000    0.00
   Analysis                       1       0.068    0.11
    optical                       1       0.000    0.00

>> End of run:  17-APR-2024   1:48:21
Job completed