Runtime information:
* Directory : /home/ICN2/jgarridoa/aiida_run/6f/97/764d-eefa-4f90-b42f-b98b20bedca1
>> Start of run:  17-APR-2024   6:22:03

reinit: Reading from standard input
reinit: Dumping input in INPUT_TMP.57690
************************** Dump of input data file ****************************
atomiccoordinatesformat Ang
cdfsave True
dminitspinaf False
dmmixingweight 0.025
dmmixscf1 True
dmnumberpulay 10
dmtolerance 1e-05
electronictemperature 50.000 K
geometrymustconverge T
latticeconstant 1.0 Ang
maxscfiterations 1000
meshcutoff 600 Ry
noncollinearspin False
numberofatoms 64
numberofspecies 2
savehs True
solutionmethod diagon
spinorbit False
spinpolarized False
systemlabel aiida
systemname aiida
usetreetimer T
writedmhsnetcdf True
writeorbmom True
xcauthors PBEsol
xcfunctional GGA
xmlwrite T
#
# -- Basis Set Info follows
#
PAO-BasisSize DZP
PAO-SplitNorm 0.15
PAO-EnergyShift 0.005 Ry
#
# -- Structural Info follows
#
%block chemicalspecieslabel
    1     5      B
    2     7      N
%endblock chemicalspecieslabel
%block lattice-vectors
      7.4358900000       0.0000000000       0.0000000000
      0.0000000000       7.4358900000       0.0000000000
      0.0000000000       0.0000000000       7.4358900000
%endblock lattice-vectors
%block atomiccoordinatesandatomicspecies
      1.1449783422       3.4899606126       1.3765319568    1      B      1
      2.0099954259       0.5312943405       3.0310174818    1      B      2
      3.9137319837       6.6920779233       1.3415832738    1      B      3
      1.5715009926       6.2283014640       4.7925054639    1      B      4
      4.8417310557       5.2446075759       6.2406450414    1      B      5
      7.0628313987       0.2208459330       3.5390374866    1      B      6
      4.9224848211       1.1393270658       2.7870459309    1      B      7
      3.3371530731       7.2659055546       5.9680453140    1      B      8
      5.6519456301       2.0063518398       5.2053460767    1      B      9
      2.4792000849       1.7333059590       0.2931971427    1      B     10
      2.1680080884       1.3937088627       4.7516824278    1      B     11
      4.8668643639       6.2689014234       3.8781140706    1      B     12
      3.3878658429       2.9083996557       5.8638684951    1      B     13
      5.4603971037       0.3310458228       6.3047424132    1      B     14
      3.6404630262       2.6029332945       2.3475848319    1      B     15
      2.9398534704       5.0159539584       2.6633127213    1      B     16
      5.9022376875       6.3282398256       1.3364525097    1      B     17
      4.9705950294       3.3442915275       3.3552966447    1      B     18
      2.4832154655       5.1127692462       0.3672586071    1      B     19
      0.8219632806       2.1982721607       6.5615036949    1      B     20
      6.5640318975       3.8923909794       7.0903441917    1      B     21
      6.7561009362       1.2283346691       0.9075503745    1      B     22
      0.5671353303       5.7061532682       2.8309920408    1      B     23
      7.2660542724       2.2033285659       3.0414277278    1      B     24
      6.4769576256       4.2767521335       2.2440028842    1      B     25
      1.1520424377       3.5070631596       4.0080190689    1      B     26
      4.1554727676       4.2721418817       1.2270705678    1      B     27
      1.1080963278       6.8925495177       0.9013042269    1      B     28
      4.2831469989       1.8177033105       0.3739509081    1      B     29
      6.4696704534       5.4829278504       4.5582005700    1      B     30
      0.3894919182       7.1226903132       6.4304089542    1      B     31
      1.2812038470       4.3334136153       6.3147065058    1      B     32
      4.8277515825       2.2895105310       6.3927833508    2      N     33
      5.6437661511       0.9459195669       4.1197061367    2      N     34
      1.2924320409       4.7266978374       4.8941540802    2      N     35
      5.0141693448       6.9325546059       2.5295410602    2      N     36
      2.3177669130       1.9378672929       6.2007143121    2      N     37
      5.3916894801       1.6870547232       1.4729010912    2      N     38
      7.3668105819       6.7697829738       4.9121489340    2      N     39
      0.7062608322       4.1734676214       2.5985461194    2      N     40
      4.2481239570       0.1562280489       7.3562516181    2      N     41
      2.4956334018       2.8274971725       1.3312473867    2      N     42
      5.7122506980       3.6295322679       0.9190016451    2      N     43
      2.6458383798       3.2320095885       3.5640220770    2      N     44
      0.9213811299       5.7712173057       7.1203108284    2      N     45
      3.9439216971       3.3469684479       4.6034851401    2      N     46
      3.1521481299       5.4584637723       5.7275686314    2      N     47
      7.2246363651       1.9091647575       5.4883560501    2      N     48
      0.9538759692       1.3706576037       3.7484321490    2      N     49
      2.5103564640       6.9424443396       1.9038852756    2      N     50
      3.4748657559       1.0437758793       3.4005068559    2      N     51
      2.0832389424       6.2920270413       3.3852632814    2      N     52
      4.9265745606       5.6852584173       0.3682996317    2      N     53
      5.0129052435       6.7123035441       5.2912306062    2      N     54
      0.6246891189       3.5230503231       7.4242900116    2      N     55
      0.5003610381       1.8768186360       1.5964112241    2      N     56
      6.3783577242       4.2461906256       5.5790739081    2      N     57
      6.4470653478       3.2219711370       3.9135089070    2      N     58
      3.4750888326       3.8149833645       7.1264082582    2      N     59
      2.3643155844       0.2253818259       0.3813867981    2      N     60
      1.7832751398       0.0466230303       5.6691225360    2      N     61
      4.4073263619       4.8783899934       3.4777657530    2      N     62
      6.7607855469       0.4634046648       7.0991185419    2      N     63
      7.3060593606       6.4952499150       1.6783547319    2      N     64
%endblock atomiccoordinatesandatomicspecies
#
# -- K-points Info follows
#
%block kgrid_monkhorst_pack
     6      0      0       0.0000000000
     0      6      0       0.0000000000
     0      0      6       0.0000000000
%endblock kgrid_monkhorst_pack
#
#
maxwalltime 7200000
************************** End of input data file *****************************

reinit: -----------------------------------------------------------------------
reinit: System Name: aiida
reinit: -----------------------------------------------------------------------
reinit: System Label: aiida
reinit: -----------------------------------------------------------------------

initatom: Reading input for the pseudopotentials and atomic orbitals ----------
Species number:   1 Atomic number:    5 Label: B
Species number:   2 Atomic number:    7 Label: N

---- Processing specs for species: B
Ground state valence configuration:   2s02  2p01
Reading pseudopotential information in PSML from:
  B.psml
PSML file version: 1.1
GGA--PBEsol XC_GGA_X_PBE_SOL--XC_GGA_C_PBE_SOL ps
PSML uuid: 4c4355a0-1d5f-11e8-6182-f22cff9f01b0

---- Processing specs for species: N
Ground state valence configuration:   2s02  2p03
Reading pseudopotential information in PSML from:
  N.psml
PSML file version: 1.1
GGA--PBEsol XC_GGA_X_PBE_SOL--XC_GGA_C_PBE_SOL ps
PSML uuid: 56b43770-1d5f-11e8-525f-e1e3c77dc801

---- Pseudopotential check for B

Pseudized shells:
2s( 2.00) rc: 1.21
2p( 1.00) rc: 1.21
Valence configuration for ps generation: 2s:2p: Total charge:   3.000000

---- Pseudopotential check for N

Pseudized shells:
2s( 2.00) rc: 1.21
2p( 3.00) rc: 1.36
Valence configuration for ps generation: 2s:2p: Total charge:   5.000000
For B, standard SIESTA heuristics set lmxkb to 3
 (one more than the basis l, including polarization orbitals).
Use PS.lmax or PS.KBprojectors blocks to override.
For N, standard SIESTA heuristics set lmxkb to 3
 (one more than the basis l, including polarization orbitals).
Use PS.lmax or PS.KBprojectors blocks to override.
B pseudopotential only contains V_ls up to l=1 -- lmxkb reset.
N pseudopotential only contains V_ls up to l=1 -- lmxkb reset.

<basis_specs>
B                    Z=   5    Mass=  10.810        Charge= 0.17977+309
Lmxo=2 Lmxkb= 1    BasisType=split      Semic=F
L=0  Nsemic=0  Cnfigmx=2
          i=1  nzeta=2  polorb=0  (2s)
            splnorm:   0.15000
               vcte:    40.000
               rinn:  -0.90000
               qcoe:    0.0000
               qyuk:    0.0000
               qwid:   0.10000E-01
                rcs:    0.0000      0.0000
            lambdas:    1.0000      1.0000
L=1  Nsemic=0  Cnfigmx=2
          i=1  nzeta=2  polorb=1  (2p)  (to be polarized perturbatively)
            splnorm:   0.15000
               vcte:    40.000
               rinn:  -0.90000
               qcoe:    0.0000
               qyuk:    0.0000
               qwid:   0.10000E-01
                rcs:    0.0000      0.0000
            lambdas:    1.0000      1.0000
L=2  Nsemic=0  Cnfigmx=3
          i=1  nzeta=0  polorb=0  (3d)  (perturbative polarization orbital) (from 2p)
L=0  Nkbl=1  erefs: 0.17977+309
L=1  Nkbl=1  erefs: 0.17977+309
</basis_specs>

Using PAO.SplitTailNorm
atom: Called for B                     (Z =   5)
NOTE: B pseudopotential has channels up to l= 1
NOTE: PAOs with higher l will be generated with V_local
Maximum radius (at nrval) set to   50.00000 8518

read_vps: Pseudopotential generation method:
read_vps: ONCVPSP-3.Hamann's oncvpsp
Valence charge in pseudo generation:    3.00000

read_vps: Pseudopotential includes a core correction:
read_vps: Pseudo-core for xc-correction

xc_check: Exchange-correlation functional:
xc_check: GGA PBEsol
Got Vlocal (oncv-fit) from psml data
Choosing vlocal chloc cutoff:  3.201794
qtot up to nchloc:    3.00023194
atom: Maximum radius for chlocal:    3.20179
atom: Maximum radius for r*vlocal+2*Zval:    3.20179
Reading KB projs from B psml data
Using scalar-relativistic projectors in PSML file

PSML: Kleinman-Bylander projectors:
   l= 0   rc=  1.223468   Ekb= 16.933205
   l= 0   rc=  1.223468   Ekb=  2.495260
   l= 1   rc=  1.223468   Ekb= -7.218359
   l= 1   rc=  1.223468   Ekb= -1.645242

PSML: Total number of  Kleinman-Bylander projectors:   8
atom: -------------------------------------------------------------------------

atom: SANKEY-TYPE ORBITALS:
atom: Selected multiple-zeta basis: split

SPLIT: Orbitals with angular momentum L= 0

SPLIT: Basis orbitals for state 2s

SPLIT: PAO cut-off radius determined from an
SPLIT: energy shift=  0.005000 Ry
Split based on tail norm

   izeta = 1
                 lambda =    1.000000
                     rc =    5.714927
                 energy =   -0.682223
                kinetic =    0.604116
    potential(screened) =   -1.286339
       potential(ionic) =   -3.302390

   izeta = 2
                 rmatch =    3.823698
              splitnorm =    0.150000
                 energy =   -0.502064
                kinetic =    1.116406
    potential(screened) =   -1.618470
[...]
        7.435890    0.000000    0.000000
        0.000000    7.435890    0.000000
        0.000000    0.000000    7.435890

outcell: Cell vector modules (Ang)   :    7.435890    7.435890    7.435890
outcell: Cell angles (23,13,12) (deg):     90.0000     90.0000     90.0000
outcell: Cell volume (Ang**3)        :    411.1487
<dSpData1D:S at geom step 0
  <sparsity:sparsity for geom step 0
    nrows_g=832 nrows=35 sparsity=.1292 nnzs=89407, refcount: 7>
  <dData1D:(new from dSpData1D) n=89407, refcount: 1>
refcount: 1>
new_DM -- step:     1
Initializing Density Matrix...

Attempting to read DM from file... Failed...
DM filled with atomic data:
<dSpData2D:DM initialized from atoms
  <sparsity:sparsity for geom step 0
    nrows_g=832 nrows=35 sparsity=.1292 nnzs=89407, refcount: 8>
  <dData2D:DM n=89407 m=1, refcount: 1>
refcount: 1>
No. of atoms with KB's overlaping orbs in proc 0. Max # of overlaps:     119     459

InitMesh: MESH = 120 x 120 x 120 = 1728000
InitMesh: Mesh cutoff (required, used) =   600.000   719.778 Ry
New grid distribution [1]: sub = 2
New grid distribution [2]: sub = 2
New grid distribution [3]: sub = 2
Setting up quadratic distribution...

stepf: Fermi-Dirac step function

siesta: Program's energy decomposition (eV):
siesta: Ebs     =     -3297.896767
siesta: Eions   =     19538.932793
siesta: Ena     =      4763.545480
siesta: Ekin    =      8287.925296
siesta: Enl     =      -904.061774
siesta: Eso     =         0.000000
siesta: Edftu   =         0.000000
siesta: DEna    =      -382.781918
siesta: DUscf   =        75.424593
siesta: DUext   =         0.000000
siesta: Ex      =     -3420.338885
siesta: Ec      =      -353.745740
siesta: Exc     =     -3774.084625
siesta: EbV     =         0.000000
siesta: eta*DQ  =         0.000000
siesta: Emadel  =         0.000000
siesta: Emeta   =         0.000000
siesta: Emolmec =         0.000000
siesta: Ekinion =         0.000000
siesta: Eharris =    -11136.810383
siesta: Etot    =    -11472.965741
siesta: FreeEng =    -11472.966207

        iscf     Eharris(eV)        E_KS(eV)     FreeEng(eV)     dDmax    Ef(eV) dHmax(eV)
   scf:    1   -11136.810383   -11472.965741   -11472.966207  1.632183 -6.349071 13.749645
 IterSCF                          1      54.630  100.00
  compute_dm                      1      51.932   95.06
  setup_H                         1       2.675    4.90
  MIXER                           1       0.000    0.00
   scf:    2   -11488.410003   -11480.948791   -11480.949380  0.052976 -6.290385 11.762046
   scf:    3   -11512.222837   -11503.883264   -11503.883949  0.281724 -5.958730  4.733936
   scf:    4   -11503.256796   -11503.936720   -11503.937794  0.079382 -5.984734  3.840524
   scf:    5   -11512.978284   -11510.176086   -11510.177175  0.097979 -5.765432  2.817960
   scf:    6   -11510.503885   -11510.356377   -11510.357482  0.017801 -5.769687  2.581714
   scf:    7   -11512.923557   -11512.102554   -11512.103528  0.049640 -5.635444  1.077957
   scf:    8   -11512.377331   -11512.248887   -11512.249819  0.010244 -5.613302  0.824477
   scf:    9   -11512.468654   -11512.408147   -11512.409035  0.027351 -5.554594  0.445970
   scf:   10   -11512.502873   -11512.474343   -11512.475275  0.030192 -5.521716  0.340663
   scf:   11   -11512.486585   -11512.482270   -11512.483186  0.005245 -5.519360  0.295329
   scf:   12   -11512.514759   -11512.504248   -11512.505236  0.012640 -5.505241  0.176872
   scf:   13   -11512.516075   -11512.511071   -11512.512069  0.006185 -5.502421  0.126755
   scf:   14   -11512.517818   -11512.515395   -11512.516387  0.004474 -5.496596  0.058324
   scf:   15   -11512.517186   -11512.516491   -11512.517490  0.002659 -5.496875  0.039515
   scf:   16   -11512.517632   -11512.517139   -11512.518141  0.002078 -5.494578  0.022905
   scf:   17   -11512.517771   -11512.517535   -11512.518541  0.001798 -5.493691  0.024456
   scf:   18   -11512.517657   -11512.517618   -11512.518623  0.000659 -5.493729  0.010286
   scf:   19   -11512.517676   -11512.517649   -11512.518653  0.000116 -5.493848  0.010151
   scf:   20   -11512.517796   -11512.517733   -11512.518738  0.000737 -5.493495  0.003996
   scf:   21   -11512.517738   -11512.517736   -11512.518740  0.000034 -5.493468  0.003279
   scf:   22   -11512.517760   -11512.517749   -11512.518754  0.000157 -5.493460  0.001709
   scf:   23   -11512.517754   -11512.517752   -11512.518756  0.000104 -5.493562  0.001239
   scf:   24   -11512.517754   -11512.517753   -11512.518758  0.000062 -5.493575  0.001020
   scf:   25   -11512.517754   -11512.517753   -11512.518758  0.000011 -5.493574  0.000998
   scf:   26   -11512.517755   -11512.517755   -11512.518759  0.000081 -5.493556  0.000789
   scf:   27   -11512.517755   -11512.517755   -11512.518759  0.000035 -5.493537  0.000400
   scf:   28   -11512.517755   -11512.517755   -11512.518760  0.000009 -5.493539  0.000325

SCF Convergence by DM+H criterion
max |DM_out - DM_in|         :     0.0000094003
max |H_out - H_in|      (eV) :     0.0003245619
SCF cycle converged after 28 iterations

Using DM_out to compute the final energy and forces
No. of atoms with KB's overlaping orbs in proc 0. Max # of overlaps:     119     459

siesta: E_KS(eV) =           -11512.5178

siesta: E_KS - E_eggbox =    -11512.5178

siesta: Atomic forces (eV/Ang):
   Tot    0.000625    0.000050   -0.002158
   Max    6.836100
   Res    2.603539    sqrt( Sum f_i^2 / 3N )
   Max    6.836100    constrained

Stress tensor Voigt[x,y,z,yz,xz,xy] (kbar):       20.18     -234.93       30.35       83.22       19.25      -84.18
(Free)E + p*V (eV/cell)   -11496.7456
Target enthalpy (eV/cell)   -11512.5188

siesta: Program's energy decomposition (eV):
siesta: Ebs     =     -3702.494882
siesta: Eions   =     19538.932793
siesta: Ena     =      4763.545480
siesta: Ekin    =      7837.210016
siesta: Enl     =      -748.559614
siesta: Eso     =         0.000000
siesta: Edftu   =         0.000000
siesta: DEna    =      -150.840534
siesta: DUscf   =        15.018391
siesta: DUext   =         0.000000
siesta: Ex      =     -3333.975034
siesta: Ec      =      -355.983668
siesta: Exc     =     -3689.958702
siesta: EbV     =         0.000000
siesta: eta*DQ  =         0.000000
siesta: Emadel  =         0.000000
siesta: Emeta   =         0.000000
siesta: Emolmec =         0.000000
siesta: Ekinion =         0.000000
siesta: Eharris =    -11512.517755
siesta: Etot    =    -11512.517755
siesta: FreeEng =    -11512.518760

siesta: Final energy (eV):
siesta:  Band Struct. =   -3702.494882
siesta:       Kinetic =    7837.210016
siesta:       Hartree =    1725.279876
siesta:         Edftu =       0.000000
siesta:       Eso     =       0.000000
siesta:    Ext. field =       0.000000
siesta:         Exch. =   -3333.975034
siesta:         Corr. =    -355.983668
siesta:     Bulk bias =       0.000000
siesta:   Exch.-corr. =   -3689.958702
siesta:  Ion-electron =  -10790.670677
siesta:       Ion-ion =   -6594.378268
siesta:       Ekinion =       0.000000
siesta: D3 dispersion =       0.000000
siesta:         Total =  -11512.517755
siesta:         Fermi =      -5.493539

siesta: Atomic forces (eV/Ang):
siesta:      1    0.895993   -3.264366    0.411826
siesta:      2    4.835926   -2.012737   -2.381635
siesta:      3    0.841943    1.289916   -1.670906
siesta:      4   -1.419470   -0.605527   -0.078755
siesta:      5   -1.415333    1.643876   -0.210364
siesta:      6   -0.549059    1.178318    5.880794
siesta:      7   -0.778071   -3.345707    2.408309
siesta:      8   -0.961745   -4.211211    3.431385
siesta:      9    5.055071   -0.255328    0.665887
siesta:     10    2.606415   -2.345117    0.481757
siesta:     11   -0.607132   -3.193536    2.401972
siesta:     12    1.563178   -2.147113   -1.476964
siesta:     13    3.946474    0.084796    2.869226
siesta:     14   -0.951869   -0.458945    2.877326
siesta:     15   -5.038606    1.375186    3.111352
siesta:     16    2.939479   -0.986481    2.685067
siesta:     17   -0.359265   -0.852417    1.680340
siesta:     18   -1.383469    2.860532    2.954286
siesta:     19    0.199904   -0.208192   -3.035884
siesta:     20   -2.326720    1.675371   -3.317098
siesta:     21    0.194256   -0.066545   -1.058211
siesta:     22    0.067011    1.800101    0.345302
siesta:     23   -0.245901   -0.783483   -0.533070
siesta:     24    1.533116   -1.620070   -0.305663
siesta:     25    0.259261   -1.970687    0.584855
siesta:     26    2.481546    3.862853   -1.448248
siesta:     27    1.784756   -0.258486   -3.635647
siesta:     28    3.004851   -2.229351   -0.797675
siesta:     29    3.653839   -3.536082   -2.620729
siesta:     30    2.946515    0.805842    2.353327
siesta:     31    1.602863   -0.966178   -3.199943
siesta:     32   -1.322832    4.972755    0.691339
siesta:     33   -0.490153   -2.366563   -0.929345
siesta:     34    2.554916    2.036240   -4.472969
siesta:     35   -1.533198   -4.763638    3.573997
siesta:     36   -0.845506   -0.764443   -4.159923
siesta:     37   -1.629279    5.119598   -2.149385
siesta:     38   -0.161970   -1.303131   -1.825133
siesta:     39   -0.400675   -2.886418   -2.351342
siesta:     40   -2.593222    1.963462   -2.035607
siesta:     41    1.478548    2.891629   -2.365897
siesta:     42    0.572468   -1.759190   -0.296452
siesta:     43    2.478901    3.506770    2.779289
siesta:     44    2.582983    2.866763    0.705729
siesta:     45    0.735232    0.123249    1.687928
siesta:     46   -4.550262   -1.368413   -2.448018
siesta:     47    4.744106    2.442285    3.804758
siesta:     48    1.649856    2.027942    4.267883
siesta:     49    1.043740   -1.364760   -1.313102
siesta:     50   -2.341221    4.535529   -6.836100
siesta:     51   -4.919032    1.390942    0.476423
siesta:     52   -3.896710   -3.276099    2.684937
siesta:     53   -0.297590   -1.006541    1.623023
siesta:     54   -1.770178   -1.197109    1.665848
siesta:     55   -1.109323   -1.315644   -4.364174
siesta:     56   -5.297706   -0.466643    1.006410
siesta:     57   -4.082042    5.957634    4.730248
siesta:     58   -1.483197   -1.788406   -6.087293
siesta:     59   -1.875283    4.545055    2.743153
siesta:     60   -6.395092    1.309003    2.025032
siesta:     61    4.407747   -2.326178   -3.508278
siesta:     62   -2.048503    1.219640   -3.047481
siesta:     63   -1.359709   -1.320828    0.984260
siesta:     64    3.779053    1.106328    3.365865
siesta: ----------------------------------------
siesta:    Tot    0.000625    0.000050   -0.002158

siesta: Stress tensor (static) (eV/Ang**3):
siesta:     0.012597   -0.052538    0.012014
siesta:    -0.052538   -0.146630    0.051941
siesta:     0.012014    0.051941    0.018942

siesta: Cell volume =        411.148651 Ang**3

siesta: Pressure (static):
siesta:                Solid            Molecule  Units
siesta:           0.00041783          0.00009247  Ry/Bohr**3
siesta:           0.03836362          0.00849064  eV/Ang**3
siesta:          61.46530157         13.60350348  kBar
(Free)E+ p_basis*V_orbitals  =      -11475.846648
(Free)Eharris+ p_basis*V_orbitals  =      -11475.846648

cite: Please see "aiida.bib" for an exhaustive BiBTeX file.
cite: Please clearly indicate Siesta version in published work: NO_VERSION_LABEL_AVAILABLE
cite: This calculation has made use of the following articles
cite: which are encouraged to be cited in a published work.
        Primary SIESTA paper
          DOI: www.doi.org/10.1088/0953-8984/14/11/302

 global_section                   1    1549.869  100.00
  siesta                          1    1549.869  100.00
   Setup                          1       0.153    0.01
    bands                         1       0.000    0.00
    KSV_init                      1       0.000    0.00
   IterGeom                       1    1549.590   99.98
    geom_init                     1       6.511    0.42
     state_init                   1       0.420    0.03
      hsparse                     1       0.038    0.00
      overlap                     1       0.171    0.01
     Setup_H0                     1       3.612    0.23
      naefs                       1       0.003    0.00
      MolMec                      1       0.000    0.00
      kinefsm                     1       0.165    0.01
      nlefsm                      1       0.481    0.03
      DHSCF_Init                  1       2.962    0.19
       DHSCF1                     1       0.087    0.01
        INITMESH                  1       0.000    0.00
       DHSCF2                     1       2.874    0.19
        REMESH                    1       0.737    0.05
         INITMESH                 2       0.302    0.02
          SPLOAD                  2       0.302    0.02
        REORD                     2       0.000    0.00
        PHION                     1       1.673    0.11
        COMM_BSC                  1       0.001    0.00
        POISON                    1       0.009    0.00
         fft                      2       0.008    0.00
     setup_H                      1       2.479    0.16
      DHSCF                       1       2.478    0.16
       DHSCF3                     1       2.478    0.16
        rhoofd                    1       1.507    0.10
        COMM_BSC                  2       0.002    0.00
        POISON                    1       0.008    0.00
         fft                      2       0.007    0.00
        XC                        1       0.075    0.00
         COMM_BSC                 2       0.002    0.00
         GXC-CellXC               1       0.073    0.00
          gridxc@cellXC           1       0.073    0.00
        vmat                      1       0.885    0.06
    IterSCF                      28    1530.417   98.74
     compute_dm                  28    1456.263   93.96
      diagon                     28    1456.235   93.96
       c-eigval                3696     672.642   43.40
        c-buildHS              3696       4.491    0.29
        cdiag                  3696     668.147   43.11
         cdiag1                3696      37.677    2.43
         cdiag2                3696     130.660    8.43
         cdiag3                3696     491.845   31.73
       c-eigvec                3696     694.656   44.82
        cdiag                  3696     690.297   44.54
         cdiag1                3696      37.898    2.45
         cdiag2                3696     130.503    8.42
         cdiag3                3696     490.220   31.63
         cdiag4                3696      25.552    1.65
       c-buildD                3696      88.442    5.71
     setup_H                     28      73.276    4.73
      DHSCF                      28      73.247    4.73
       DHSCF3                    28      73.247    4.73
        rhoofd                   28      44.173    2.85
        COMM_BSC                 56       1.628    0.11
        POISON                   28       0.230    0.01
         fft                     56       0.207    0.01
        XC                       28       2.147    0.14
         COMM_BSC                56       0.038    0.00
         GXC-CellXC              28       2.107    0.14
          gridxc@cellXC          28       2.107    0.14
        vmat                     28      25.035    1.62
     MIXER                       27       0.164    0.01
    PostSCF                       1      12.644    0.82
     naefs                        1       0.003    0.00
     kinefsm                      1       0.023    0.00
     nlefsm                       1       0.169    0.01
     DHSCF                        1      11.249    0.73
      DHSCF3                      1       2.538    0.16
       rhoofd                     1       1.387    0.09
       COMM_BSC                   2       0.190    0.01
       POISON                     1       0.008    0.00
        fft                       2       0.007    0.00
       XC                         1       0.078    0.01
        COMM_BSC                  2       0.001    0.00
        GXC-CellXC                1       0.076    0.00
         gridxc@cellXC            1       0.076    0.00
       vmat                       1       0.873    0.06
      DHSCF4                      1       8.711    0.56
       REORD                     10       0.001    0.00
       COMM_BSC                   2       0.064    0.00
       dfscf                      1       8.400    0.54
     overfsm                      1       0.024    0.00
     MolMec                       1       0.000    0.00
     writeHSX                     1       0.041    0.00
    state_analysis                1       0.001    0.00
    siesta_move                   1       0.000    0.00
   Analysis                       1       0.117    0.01
    optical                       1       0.000    0.00

>> End of run:  17-APR-2024   6:47:53
Job completed