Runtime information:
* Directory : /home/ICN2/jgarridoa/aiida_run/0e/0f/06be-161e-48e9-be01-88c32833e14e
>> Start of run:  13-APR-2024  13:54:15

reinit: Reading from standard input
reinit: Dumping input in INPUT_TMP.73774
************************** Dump of input data file ****************************
atomiccoordinatesformat Ang
cdfsave True
dminitspinaf False
dmmixingweight 0.025
dmmixscf1 True
dmnumberpulay 10
dmtolerance 1e-05
electronictemperature 50.000 K
geometrymustconverge T
latticeconstant 1.0 Ang
maxscfiterations 1000
meshcutoff 400 Ry
noncollinearspin False
numberofatoms 8
numberofspecies 1
savehs True
solutionmethod diagon
spinorbit False
spinpolarized False
systemlabel aiida
systemname aiida
usetreetimer T
writedmhsnetcdf True
writeorbmom True
xcauthors PBEsol
xcfunctional GGA
xmlwrite T
#
# -- Basis Set Info follows
#
PAO-BasisSize DZP
PAO-SplitNorm 0.15
PAO-EnergyShift 0.005 Ry
#
# -- Structural Info follows
#
%block chemicalspecieslabel
    1     6      C
%endblock chemicalspecieslabel
%block lattice-vectors
      3.4750700000       0.0000000000       0.0000000000
      0.0000000000       3.6389100000       0.0000000000
      0.0000000000       0.0000000000       3.3691900000
%endblock lattice-vectors
%block atomiccoordinatesandatomicspecies
      3.4473041907       3.6208246173       3.3335776617    1      C      1
      3.4539763251       1.7099601981       1.7114137524    1      C      2
      1.7013942720       3.6027756237       1.7013735662    1      C      3
      1.7013942720       1.7013723705       3.3330722832    1      C      4
      0.8325572706       0.8325462189       0.8325605409    1      C      5
      0.8326267720       2.5701257439       2.5701192077    1      C      6
      2.5760346403       0.8450276802       2.5846404166    1      C      7
      2.5720383098       2.5725638136       0.8524050700    1      C      8
%endblock atomiccoordinatesandatomicspecies
#
# -- K-points Info follows
#
%block kgrid_monkhorst_pack
     6      0      0       0.0000000000
     0      6      0       0.0000000000
     0      0      6       0.0000000000
%endblock kgrid_monkhorst_pack
#
#
maxwalltime 7200000
************************** End of input data file *****************************

reinit: -----------------------------------------------------------------------
reinit: System Name: aiida
reinit: -----------------------------------------------------------------------
reinit: System Label: aiida
reinit: -----------------------------------------------------------------------

initatom: Reading input for the pseudopotentials and atomic orbitals ----------
Species number:   1 Atomic number:    6 Label: C

---- Processing specs for species: C
Ground state valence configuration:   2s02  2p02
Reading pseudopotential information in PSML from:
  C.psml
PSML file version: 1.1
GGA--PBEsol XC_GGA_X_PBE_SOL--XC_GGA_C_PBE_SOL ps
PSML uuid: 51a02af0-1d5f-11e8-49c3-12b9ebd99919

---- Pseudopotential check for C

Pseudized shells:
2s( 2.00) rc: 1.20
2p( 2.00) rc: 1.26
Valence configuration for ps generation: 2s:2p: Total charge:   4.000000
For C, standard SIESTA heuristics set lmxkb to 3
 (one more than the basis l, including polarization orbitals).
Use PS.lmax or PS.KBprojectors blocks to override.
C pseudopotential only contains V_ls up to l=1 -- lmxkb reset.

<basis_specs>
C                    Z=   6    Mass=  12.011        Charge= 0.17977+309
Lmxo=2 Lmxkb= 1    BasisType=split      Semic=F
L=0  Nsemic=0  Cnfigmx=2
          i=1  nzeta=2  polorb=0  (2s)
            splnorm:   0.15000
               vcte:    40.000
               rinn:  -0.90000
               qcoe:    0.0000
               qyuk:    0.0000
               qwid:   0.10000E-01
                rcs:    0.0000      0.0000
            lambdas:    1.0000      1.0000
L=1  Nsemic=0  Cnfigmx=2
          i=1  nzeta=2  polorb=1  (2p)  (to be polarized perturbatively)
            splnorm:   0.15000
               vcte:    40.000
               rinn:  -0.90000
               qcoe:    0.0000
               qyuk:    0.0000
               qwid:   0.10000E-01
                rcs:    0.0000      0.0000
            lambdas:    1.0000      1.0000
L=2  Nsemic=0  Cnfigmx=3
          i=1  nzeta=0  polorb=0  (3d)  (perturbative polarization orbital) (from 2p)
L=0  Nkbl=1  erefs: 0.17977+309
L=1  Nkbl=1  erefs: 0.17977+309
</basis_specs>

Using PAO.SplitTailNorm
atom: Called for C                     (Z =   6)
NOTE: C pseudopotential has channels up to l= 1
NOTE: PAOs with higher l will be generated with V_local
Maximum radius (at nrval) set to   50.00000 8518

read_vps: Pseudopotential generation method:
read_vps: ONCVPSP-3.Hamann's oncvpsp
Valence charge in pseudo generation:    4.00000

read_vps: Pseudopotential includes a core correction:
read_vps: Pseudo-core for xc-correction

xc_check: Exchange-correlation functional:
xc_check: GGA PBEsol
Got Vlocal (oncv-fit) from psml data
Choosing vlocal chloc cutoff:  4.114026
qtot up to nchloc:    4.00001066
atom: Maximum radius for chlocal:    4.11403
atom: Maximum radius for r*vlocal+2*Zval:    4.11403
Reading KB projs from C psml data
Using scalar-relativistic projectors in PSML file

PSML: Kleinman-Bylander projectors:
   l= 0   rc=  1.219773   Ekb= 12.937878
   l= 0   rc=  1.219773   Ekb=  0.780062
   l= 1   rc=  1.278952   Ekb= -8.359390
   l= 1   rc=  1.278952   Ekb= -1.756905

PSML: Total number of  Kleinman-Bylander projectors:   8
atom: -------------------------------------------------------------------------

atom: SANKEY-TYPE ORBITALS:
atom: Selected multiple-zeta basis: split

SPLIT: Orbitals with angular momentum L= 0

SPLIT: Basis orbitals for state 2s

SPLIT: PAO cut-off radius determined from an
SPLIT: energy shift=  0.005000 Ry
Split based on tail norm

   izeta = 1
                 lambda =    1.000000
                     rc =    4.858714
                 energy =   -0.997375
                kinetic =    0.928233
    potential(screened) =   -1.925608
       potential(ionic) =   -5.470603

   izeta = 2
                 rmatch =    3.157143
              splitnorm =    0.150000
                 energy =   -0.747328
                kinetic =    1.689643
    potential(screened) =   -2.436971
       potential(ionic) =   -6.275825

SPLIT: Orbitals with angular momentum L= 1

SPLIT: Basis orbitals for state 2p

SPLIT: PAO cut-off radius determined from an
SPLIT: energy shift=  0.005000 Ry
Split based on tail norm

   izeta = 1
                 lambda =    1.000000
                     rc =    5.984425
                 energy =   -0.378962
                kinetic =    2.440834
    potential(screened) =   -2.819796
       potential(ionic) =   -6.224005

   izeta = 2
                 rmatch =    3.889428
              splitnorm =    0.150000
                 energy =   -0.273331
                kinetic =    3.469746
    potential(screened) =   -3.743077
       potential(ionic) =   -7.475055
*Note: V_local used for l= 2

** Using vlocal for PAOs with L= 2

POLgen: Perturbative polarization orbital with L=  2

POLgen: Polarization orbital for state 2p
*Note: V_local used for lpol= 2

** Using vlocal for PAOs with L= 2
Split based on tail norm

   izeta = 1
                     rc =    5.984425
                 energy =    1.076317
                kinetic =    2.134413
    potential(screened) =   -1.058097
       potential(ionic) =   -3.835567
atom: Total number of Sankey-type orbitals: 13

atm_pop: Valence configuration (for local Pseudopot. screening):
 2s( 2.00)
 2p( 2.00)
 3d( 0.00)
Vna: chval, zval:    4.00000   4.00000

Vna:  Cut-off radius for the neutral-atom potential:   5.984425
comcore: Pseudo-core radius Rcore=  1.671741

atom: _________________________________________________________________________

prinput: Basis input

PAO.BasisType split

%block ChemicalSpeciesLabel
    1    6 C                       # Species index, atomic number, species label
%endblock ChemicalSpeciesLabel

%block PAO.Basis                 # Define Basis set
# WARNING: This information might be incomplete!
C                     2                    # Species label, number of l-shells
 n=2   0   2                         # n, l, Nzeta
   4.859      3.157
   1.000      1.000
 n=2   1   2 P   1                   # n, l, Nzeta, Polarization, NzetaPol
   5.984      3.889
   1.000      1.000
%endblock PAO.Basis

prinput: ----------------------------------------------------------------------

coor:   Atomic-coordinates input format  =     Cartesian coordinates
coor:                                          (in Angstroms)

siesta: Atomic coordinates (Bohr) and species
siesta:      6.51446   6.84237   6.29955  1        1
siesta:      6.52707   3.23136   3.23410  1        2
siesta:      3.21517   6.80826   3.21513  1        3
siesta:      3.21517   3.21513   6.29859  1        4
siesta:      1.57331   1.57328   1.57331  1        5
siesta:      1.57344   4.85683   4.85682  1        6
siesta:      4.86800   1.59687   4.88426  1        7
siesta:      4.86045   4.86144   1.61081  1        8

siesta: System type = bulk

initatomlists: Number of atoms, orbitals, and projectors:      8   104    64

siesta: ******************** Simulation parameters ****************************
siesta:
siesta: The following are some of the parameters of the simulation.
siesta: A complete list of the parameters used, including default values,
siesta: can be found in file out.fdf
siesta:
redata: Spin configuration                          = none
redata: Number of spin components                   = 1
redata: Time-Reversal Symmetry                      = T
redata: Spin spiral                                 = F
redata: Long output                                 =   F
redata: Number of Atomic Species                    =        1
redata: Charge density info will appear in .RHO file
redata: Write Mulliken Pop.                         = NO
redata: Matel table size (NRTAB)                    =     1024
redata: Mesh Cutoff                                 =   400.0000 Ry
redata: Net charge of the system                    =     0.0000 |e|
redata: Min. number of SCF Iter                     =        0
redata: Max. number of SCF Iter                     =     1000
redata: SCF convergence failure will abort job
redata: SCF mix quantity                            = Hamiltonian
redata: Mix DM or H after convergence               =   F
redata: Recompute H after scf cycle                 =   F
redata: Mix DM in first SCF step                    =   T
redata: Write Pulay info on disk                    =   F
redata: New DM Occupancy tolerance                  = 0.000000000001
redata: No kicks to SCF
redata: DM Mixing Weight for Kicks                  =     0.5000
redata: Require Harris convergence for SCF          =   F
redata: Harris energy tolerance for SCF             =     0.000100 eV
redata: Require DM convergence for SCF              =   T
redata: DM tolerance for SCF                        =     0.000010
redata: Require EDM convergence for SCF             =   F
redata: EDM tolerance for SCF                       =     0.001000 eV
redata: Require H convergence for SCF               =   T
redata: Hamiltonian tolerance for SCF               =     0.001000 eV
redata: Require (free) Energy convergence for SCF   =   F
redata: (free) Energy tolerance for SCF             =     0.000100 eV
redata: Using DFT-D3 dispersion                     =   F
redata: Using Saved Data (generic)                  =   F
redata: Use continuation files for DM               =   T
redata: Neglect nonoverlap interactions             =   F
redata: Method of Calculation                       = Diagonalization
redata: Electronic Temperature                      =    50.0000 K
redata: Fix the spin of the system                  =   F
redata: Max. number of TDED Iter                    =        1
redata: Number of TDED substeps                     =        3
redata: Dynamics option                             = Single-point calculation
mix.SCF: Pulay mixing                            = Pulay
mix.SCF:    Variant                              = stable
mix.SCF:    History steps                        = 10
mix.SCF:    Linear mixing weight                 =     0.025000
mix.SCF:    Mixing weight                        =     0.025000
mix.SCF:    SVD condition                        = 0.1000E-07
redata: ***********************************************************************

%block SCF.Mixers
  Pulay
%endblock SCF.Mixers

%block SCF.Mixer.Pulay
  # Mixing method
  method pulay
  variant stable

  # Mixing options
  weight 0.0250
  weight.linear 0.0250
  history 10
%endblock SCF.Mixer.Pulay

DM_history_depth set to one: no extrapolation allowed by default for geometry relaxation
Size of DM history Fstack: 1
Total number of electrons:    32.000000
Total ionic charge:    32.000000

* ProcessorY, Blocksize:    6   4

* Orbital distribution balance (max,min):     8     4

k-point displ. along   1 input, could be:     0.00    0.50
k-point displ. along   2 input, could be:     0.00    0.50
k-point displ. along   3 input, could be:     0.00    0.50
 Kpoints in:          144 . Kpoints trimmed:          132

siesta: k-grid: Number of k-points = 132
siesta: k-points from Monkhorst-Pack grid
siesta: k-cutoff (effective) =    10.108 Ang
siesta: k-point supercell and displacements
siesta: k-grid:     6     0     0      0.000
siesta: k-grid:     0     6     0      0.000
siesta: k-grid:     0     0     6      0.000

diag: Algorithm                                     = D&C
diag: Parallel over k                               =   F
diag: Use parallel 2D distribution                  =   T
diag: Parallel block-size                           = 4
diag: Parallel distribution                         =     4 x     6
diag: Used triangular part                          = Lower
diag: Absolute tolerance                            =  0.100E-15
diag: Orthogonalization factor                      =  0.100E-05

superc: Internal auxiliary supercell:     5 x     5 x     5  =     125
superc: Number of atoms, orbitals, and projectors:   1000  13000   8000

ts: **************************************************************
ts: Save H and S matrices                           =    F
ts: Save DM and EDM matrices                        =    F
ts: Only save the overlap matrix S                  =    F
ts: **************************************************************

************************ Begin: TS CHECKS AND WARNINGS ************************
************************ End: TS CHECKS AND WARNINGS **************************

                        Single-point calculation

superc: Internal auxiliary supercell:     5 x     5 x     5  =     125
superc: Number of atoms, orbitals, and projectors:   1000  13000   8000

outcell: Unit cell vectors (Ang):
        3.475070    0.000000    0.000000
        0.000000    3.638910    0.000000
        0.000000    0.000000    3.369190

outcell: Cell vector modules (Ang)   :    3.475070    3.638910    3.369190
outcell: Cell angles (23,13,12) (deg):     90.0000     90.0000     90.0000
outcell: Cell volume (Ang**3)        :     42.6050
<dSpData1D:S at geom step 0
  <sparsity:sparsity for geom step 0
    nrows_g=104 nrows=8 sparsity=1.5678 nnzs=16957, refcount: 7>
  <dData1D:(new from dSpData1D) n=16957, refcount: 1>
refcount: 1>
new_DM -- step:     1
Initializing Density Matrix...

Attempting to read DM from file... Failed...
DM filled with atomic data:
<dSpData2D:DM initialized from atoms
  <sparsity:sparsity for geom step 0
    nrows_g=104 nrows=8 sparsity=1.5678 nnzs=16957, refcount: 8>
  <dData2D:DM n=16957 m=1, refcount: 1>
refcount: 1>
No. of atoms with KB's overlaping orbs in proc 0. Max # of overlaps:      66     445

InitMesh: MESH = 48 x 48 x 48 = 110592
InitMesh: Mesh cutoff (required, used) =   400.000   480.886 Ry
New grid distribution [1]: sub = 2
New grid distribution [2]: sub = 2
New grid distribution [3]: sub = 2
Setting up quadratic distribution...

stepf: Fermi-Dirac step function

siesta: Program's energy decomposition (eV):
siesta: Ebs     =      -491.540828
siesta: Eions   =      2258.737412
siesta: Ena     =       595.442324
siesta: Ekin    =       951.835122
siesta: Enl     =       -60.177514
siesta: Eso     =         0.000000
siesta: Edftu   =         0.000000
siesta: DEna    =       -58.971583
siesta: DUscf   =         4.765017
siesta: DUext   =         0.000000
siesta: Ex      =      -430.722265
siesta: Ec      =       -46.959556
siesta: Exc     =      -477.681820
siesta: EbV     =         0.000000
siesta: eta*DQ  =         0.000000
siesta: Emadel  =         0.000000
siesta: Emeta   =         0.000000
siesta: Emolmec =         0.000000
siesta: Ekinion =         0.000000
siesta: Eharris =     -1263.294418
siesta: Etot    =     -1303.525865
siesta: FreeEng =     -1303.525865

        iscf     Eharris(eV)        E_KS(eV)     FreeEng(eV)     dDmax    Ef(eV) dHmax(eV)
   scf:    1    -1263.294418    -1303.525865    -1303.525865  1.690930 -3.816575  1.877277
 IterSCF                          1       1.668  100.00
  compute_dm                      1       1.463   87.73
  setup_H                         1       0.201   12.04
  MIXER                           1       0.000    0.00
   scf:    2    -1303.587636    -1303.556834    -1303.556834  0.009941 -3.790100  1.802579
   scf:    3    -1304.286378    -1303.976593    -1303.976593  0.217699 -4.283956  0.587329
   scf:    4    -1304.027392    -1304.009261    -1304.009261  0.028662 -4.196165  0.070169
   scf:    5    -1304.010572    -1304.009968    -1304.009968  0.005786 -4.173254  0.024278
   scf:    6    -1304.010231    -1304.010116    -1304.010116  0.001204 -4.172244  0.007027
   scf:    7    -1304.010110    -1304.010113    -1304.010113  0.000133 -4.172653  0.008377
   scf:    8    -1304.010162    -1304.010139    -1304.010139  0.000906 -4.172954  0.002987
mix: Pulay -- inversion failed, > SVD [rank/size] 5 / 7
   scf:    9    -1304.010141    -1304.010140    -1304.010140  0.000157 -4.172532  0.002603
mix: Pulay -- inversion failed, > SVD [rank/size] 5 / 8
   scf:   10    -1304.010141    -1304.010140    -1304.010140  0.000037 -4.172584  0.002527
mix: Pulay -- inversion failed, > SVD [rank/size] 5 / 9
   scf:   11    -1304.010142    -1304.010141    -1304.010141  0.000169 -4.172778  0.002060
mix: Pulay -- inversion failed, > SVD [rank/size] 5 / 9
   scf:   12    -1304.010145    -1304.010143    -1304.010143  0.000398 -4.172917  0.000304
mix: Pulay -- inversion failed, > SVD [rank/size] 5 / 9
   scf:   13    -1304.010143    -1304.010143    -1304.010143  0.000011 -4.172916  0.000295
mix: Pulay -- inversion failed, > SVD [rank/size] 6 / 9
   scf:   14    -1304.010143    -1304.010143    -1304.010143  0.000019 -4.172943  0.000064
mix: Pulay -- inversion failed, > SVD [rank/size] 6 / 9
   scf:   15    -1304.010143    -1304.010143    -1304.010143  0.000000 -4.172943  0.000062

SCF Convergence by DM+H criterion
max |DM_out - DM_in|         :     0.0000001928
max |H_out - H_in|      (eV) :     0.0000623866
SCF cycle converged after 15 iterations

Using DM_out to compute the final energy and forces
No. of atoms with KB's overlaping orbs in proc 0. Max # of overlaps:      66     445

siesta: E_KS(eV) =            -1304.0101

siesta: E_KS - E_eggbox =     -1304.0101

siesta: Atomic forces (eV/Ang):
   Tot    0.001333    0.001200   -0.000353
   Max    5.335578
   Res    2.484717    sqrt( Sum f_i^2 / 3N )
   Max    5.335578    constrained

Stress tensor Voigt[x,y,z,yz,xz,xy] (kbar):     -507.99       16.11     -737.12        7.59      -36.80       59.79
(Free)E + p*V (eV/cell)    -1293.1163
Target enthalpy (eV/cell)    -1304.0101

siesta: Program's energy decomposition (eV):
siesta: Ebs     =      -499.268095
siesta: Eions   =      2258.737412
siesta: Ena     =       595.442324
siesta: Ekin    =       931.475883
siesta: Enl     =       -55.795913
siesta: Eso     =         0.000000
siesta: Edftu   =         0.000000
siesta: DEna    =       -45.100841
siesta: DUscf   =         3.313332
siesta: DUext   =         0.000000
siesta: Ex      =      -427.403909
siesta: Ec      =       -47.203607
siesta: Exc     =      -474.607516
siesta: EbV     =         0.000000
siesta: eta*DQ  =         0.000000
siesta: Emadel  =         0.000000
siesta: Emeta   =         0.000000
siesta: Emolmec =         0.000000
siesta: Ekinion =         0.000000
siesta: Eharris =     -1304.010143
siesta: Etot    =     -1304.010143
siesta: FreeEng =     -1304.010143

siesta: Final energy (eV):
siesta:  Band Struct. =    -499.268095
siesta:       Kinetic =     931.475883
siesta:       Hartree =      99.975400
siesta:         Edftu =       0.000000
siesta:       Eso     =       0.000000
siesta:    Ext. field =       0.000000
siesta:         Exch. =    -427.403909
siesta:         Corr. =     -47.203607
siesta:     Bulk bias =       0.000000
siesta:   Exch.-corr. =    -474.607516
siesta:  Ion-electron =   -1105.392985
siesta:       Ion-ion =    -755.460925
siesta:       Ekinion =       0.000000
siesta: D3 dispersion =       0.000000
siesta:         Total =   -1304.010143
siesta:         Fermi =      -4.172943

siesta: Atomic forces (eV/Ang):
siesta:      1    0.225280   -5.335578    3.304080
siesta:      2   -0.694438    0.831054   -1.027875
siesta:      3    0.397592   -3.910919   -0.409380
siesta:      4    0.184500    1.605687    4.031906
siesta:      5    0.322199   -0.889535    0.976504
siesta:      6   -0.201523    4.999319   -2.685764
siesta:      7   -0.171227   -1.504495   -4.234932
siesta:      8   -0.061051    4.205667    0.045109
siesta: ----------------------------------------
siesta:    Tot    0.001333    0.001200   -0.000353

siesta: Stress tensor (static) (eV/Ang**3):
siesta:    -0.317065    0.037320   -0.022968
siesta:     0.037320    0.010057    0.004738
siesta:    -0.022968    0.004738   -0.460074

siesta: Cell volume =         42.604981 Ang**3

siesta: Pressure (static):
siesta:                Solid            Molecule  Units
siesta:           0.00278486          0.00310302  Ry/Bohr**3
siesta:           0.25569412          0.28490611  eV/Ang**3
siesta:         409.66714062        456.46991963  kBar
(Free)E+ p_basis*V_orbitals  =       -1300.082319
(Free)Eharris+ p_basis*V_orbitals  =       -1300.082319

cite: Please see "aiida.bib" for an exhaustive BiBTeX file.
cite: Please clearly indicate Siesta version in published work: NO_VERSION_LABEL_AVAILABLE
cite: This calculation has made use of the following articles
cite: which are encouraged to be cited in a published work.
        Primary SIESTA paper
          DOI: www.doi.org/10.1088/0953-8984/14/11/302

 global_section                   1      26.646  100.00
  siesta                          1      26.646  100.00
   Setup                          1       0.111    0.42
    bands                         1       0.000    0.00
    KSV_init                      1       0.000    0.00
   IterGeom                       1      26.516   99.51
    geom_init                     1       1.009    3.79
     state_init                   1       0.090    0.34
      hsparse                     1       0.005    0.02
      overlap                     1       0.029    0.11
     Setup_H0                     1       0.601    2.26
      naefs                       1       0.000    0.00
      MolMec                      1       0.000    0.00
      kinefsm                     1       0.027    0.10
      nlefsm                      1       0.091    0.34
      DHSCF_Init                  1       0.483    1.81
       DHSCF1                     1       0.031    0.12
        INITMESH                  1       0.000    0.00
       DHSCF2                     1       0.451    1.69
        REMESH                    1       0.121    0.45
         INITMESH                 2       0.056    0.21
          SPLOAD                  2       0.056    0.21
        REORD                     2       0.000    0.00
        PHION                     1       0.177    0.66
        COMM_BSC                  1       0.000    0.00
        POISON                    1       0.001    0.00
         fft                      2       0.001    0.00
     setup_H                      1       0.318    1.19
      DHSCF                       1       0.317    1.19
       DHSCF3                     1       0.317    1.19
        rhoofd                    1       0.113    0.42
        COMM_BSC                  2       0.084    0.32
        POISON                    1       0.001    0.00
         fft                      2       0.001    0.00
        XC                        1       0.008    0.03
         COMM_BSC                 2       0.000    0.00
         GXC-CellXC               1       0.008    0.03
          gridxc@cellXC           1       0.008    0.03
        vmat                      1       0.112    0.42
    IterSCF                      15      24.624   92.41
     compute_dm                  15      21.429   80.42
      diagon                     15      21.427   80.42
       c-eigval                1980       9.957   37.37
        c-buildHS              1980       0.464    1.74
        cdiag                  1980       9.491   35.62
         cdiag1                1980       0.549    2.06
         cdiag2                1980       1.262    4.73
         cdiag3                1980       7.488   28.10
       c-eigvec                1980      10.390   38.99
        cdiag                  1980       9.924   37.25
         cdiag1                1980       0.552    2.07
         cdiag2                1980       1.260    4.73
         cdiag3                1980       7.486   28.09
         cdiag4                1980       0.363    1.36
       c-buildD                1980       1.070    4.01
     setup_H                     15       3.126   11.73
      DHSCF                      15       3.125   11.73
       DHSCF3                    15       3.125   11.73
        rhoofd                   15       1.682    6.31
        COMM_BSC                 30       0.236    0.89
        POISON                   15       0.023    0.09
         fft                     30       0.023    0.08
        XC                       15       0.097    0.36
         COMM_BSC                30       0.002    0.01
         GXC-CellXC              15       0.095    0.35
          gridxc@cellXC          15       0.094    0.35
        vmat                     15       1.086    4.08
     MIXER                       14       0.009    0.03
    PostSCF                       1       0.882    3.31
     naefs                        1       0.000    0.00
     kinefsm                      1       0.003    0.01
     nlefsm                       1       0.064    0.24
     DHSCF                        1       0.516    1.94
      DHSCF3                      1       0.201    0.75
       rhoofd                     1       0.117    0.44
       COMM_BSC                   2       0.011    0.04
       POISON                     1       0.001    0.00
        fft                       2       0.001    0.00
       XC                         1       0.005    0.02
        COMM_BSC                  2       0.000    0.00
        GXC-CellXC                1       0.004    0.02
         gridxc@cellXC            1       0.004    0.02
       vmat                       1       0.067    0.25
      DHSCF4                      1       0.316    1.18
       REORD                     10       0.000    0.00
       COMM_BSC                   2       0.002    0.01
       dfscf                      1       0.285    1.07
     overfsm                      1       0.004    0.01
     MolMec                       1       0.000    0.00
     writeHSX                     1       0.006    0.02
    state_analysis                1       0.000    0.00
    siesta_move                   1       0.000    0.00
   Analysis                       1       0.017    0.06
    optical                       1       0.000    0.00

>> End of run:  13-APR-2024  13:54:42
Job completed