Runtime information:
* Directory : /home/ICN2/jgarridoa/aiida_run/97/8f/3adf-8572-4db9-9199-08ce4a92d53d
>> Start of run:  17-APR-2024   1:30:26

reinit: Reading from standard input
reinit: Dumping input in INPUT_TMP.60617
************************** Dump of input data file ****************************
atomiccoordinatesformat Ang
cdfsave True
dminitspinaf False
dmmixingweight 0.025
dmmixscf1 True
dmnumberpulay 10
dmtolerance 1e-05
electronictemperature 50.000 K
geometrymustconverge T
latticeconstant 1.0 Ang
maxscfiterations 1000
meshcutoff 400 Ry
noncollinearspin False
numberofatoms 8
numberofspecies 2
savehs True
solutionmethod diagon
spinorbit False
spinpolarized False
systemlabel aiida
systemname aiida
usetreetimer T
writedmhsnetcdf True
writeorbmom True
xcauthors PBEsol
xcfunctional GGA
xmlwrite T
#
# -- Basis Set Info follows
#
PAO-BasisSize DZP
PAO-SplitNorm 0.15
PAO-EnergyShift 0.005 Ry
#
# -- Structural Info follows
#
%block chemicalspecieslabel
    1     7      N
    2     5      B
%endblock chemicalspecieslabel
%block lattice-vectors
      3.6745400000       0.0000000000       0.0000000000
      0.0000000000       3.6474100000       0.0000000000
      0.0000000000       0.0000000000       3.6685500000
%endblock lattice-vectors
%block atomiccoordinatesandatomicspecies
      3.6460623150       3.6214039667       3.6423198675    1      N      1
      3.6417998486       1.8128357182       1.8122637000    1      N      2
      1.8068815542       3.6266197630       1.8045964305    1      N      3
      1.7989812932       1.7989755602       3.6302503380    1      N      4
      0.8801258208       0.8801200330       0.8801218305    2      B      5
      0.8803830386       2.7175757687       2.7175884690    2      B      6
      2.7329391250       0.8916823227       2.7236415765    2      B      7
      2.7373485730       2.7184876212       0.8834602110    2      B      8
%endblock atomiccoordinatesandatomicspecies
#
# -- K-points Info follows
#
%block kgrid_monkhorst_pack
     6      0      0       0.0000000000
     0      6      0       0.0000000000
     0      0      6       0.0000000000
%endblock kgrid_monkhorst_pack
#
#
maxwalltime 7200000
************************** End of input data file *****************************

reinit: -----------------------------------------------------------------------
reinit: System Name: aiida
reinit: -----------------------------------------------------------------------
reinit: System Label: aiida
reinit: -----------------------------------------------------------------------

initatom: Reading input for the pseudopotentials and atomic orbitals ----------
Species number:   1 Atomic number:    7 Label: N
Species number:   2 Atomic number:    5 Label: B

---- Processing specs for species: N
Ground state valence configuration:   2s02  2p03
Reading pseudopotential information in PSML from:
  N.psml
PSML file version: 1.1
GGA--PBEsol XC_GGA_X_PBE_SOL--XC_GGA_C_PBE_SOL ps
PSML uuid: 56b43770-1d5f-11e8-525f-e1e3c77dc801

---- Processing specs for species: B
Ground state valence configuration:   2s02  2p01
Reading pseudopotential information in PSML from:
  B.psml
PSML file version: 1.1
GGA--PBEsol XC_GGA_X_PBE_SOL--XC_GGA_C_PBE_SOL ps
PSML uuid: 4c4355a0-1d5f-11e8-6182-f22cff9f01b0

---- Pseudopotential check for N

Pseudized shells:
2s( 2.00) rc: 1.21
2p( 3.00) rc: 1.36
Valence configuration for ps generation: 2s:2p: Total charge:   5.000000

---- Pseudopotential check for B

Pseudized shells:
2s( 2.00) rc: 1.21
2p( 1.00) rc: 1.21
Valence configuration for ps generation: 2s:2p: Total charge:   3.000000
For N, standard SIESTA heuristics set lmxkb to 3
 (one more than the basis l, including polarization orbitals).
Use PS.lmax or PS.KBprojectors blocks to override.
For B, standard SIESTA heuristics set lmxkb to 3
 (one more than the basis l, including polarization orbitals).
Use PS.lmax or PS.KBprojectors blocks to override.
N pseudopotential only contains V_ls up to l=1 -- lmxkb reset.
B pseudopotential only contains V_ls up to l=1 -- lmxkb reset.

<basis_specs>
N                    Z=   7    Mass=  14.007        Charge= 0.17977+309
Lmxo=2 Lmxkb= 1    BasisType=split      Semic=F
L=0  Nsemic=0  Cnfigmx=2
          i=1  nzeta=2  polorb=0  (2s)
            splnorm:   0.15000
               vcte:    40.000
               rinn:  -0.90000
               qcoe:    0.0000
               qyuk:    0.0000
               qwid:   0.10000E-01
                rcs:    0.0000      0.0000
            lambdas:    1.0000      1.0000
L=1  Nsemic=0  Cnfigmx=2
          i=1  nzeta=2  polorb=1  (2p)  (to be polarized perturbatively)
            splnorm:   0.15000
               vcte:    40.000
               rinn:  -0.90000
               qcoe:    0.0000
               qyuk:    0.0000
               qwid:   0.10000E-01
                rcs:    0.0000      0.0000
            lambdas:    1.0000      1.0000
L=2  Nsemic=0  Cnfigmx=3
          i=1  nzeta=0  polorb=0  (3d)  (perturbative polarization orbital) (from 2p)
L=0  Nkbl=1  erefs: 0.17977+309
L=1  Nkbl=1  erefs: 0.17977+309
</basis_specs>

Using PAO.SplitTailNorm
atom: Called for N                     (Z =   7)
NOTE: N pseudopotential has channels up to l= 1
NOTE: PAOs with higher l will be generated with V_local
Maximum radius (at nrval) set to   50.00000 8518

read_vps: Pseudopotential generation method:
read_vps: ONCVPSP-3.Hamann's oncvpsp
Valence charge in pseudo generation:    5.00000

read_vps: Pseudopotential includes a core correction:
read_vps: Pseudo-core for xc-correction

xc_check: Exchange-correlation functional:
xc_check: GGA PBEsol
Got Vlocal (oncv-fit) from psml data
Choosing vlocal chloc cutoff:  6.038618
qtot up to nchloc:    4.99997633
atom: Maximum radius for chlocal:    6.03862
atom: Maximum radius for r*vlocal+2*Zval:    6.03862
Reading KB projs from N psml data
Using scalar-relativistic projectors in PSML file

PSML: Kleinman-Bylander projectors:
   l= 0   rc=  1.214864   Ekb= 14.928379
   l= 0   rc=  1.221004   Ekb=  1.251736
   l= 1   rc=  1.375180   Ekb= -8.619428
   l= 1   rc=  1.375180   Ekb= -2.025883

PSML: Total number of  Kleinman-Bylander projectors:   8
atom: -------------------------------------------------------------------------

atom: SANKEY-TYPE ORBITALS:
atom: Selected multiple-zeta basis: split

SPLIT: Orbitals with angular momentum L= 0

SPLIT: Basis orbitals for state 2s

SPLIT: PAO cut-off radius determined from an
SPLIT: energy shift=  0.005000 Ry
Split based on tail norm

   izeta = 1
                 lambda =    1.000000
                     rc =    4.265195
                 energy =   -1.350827
                kinetic =    1.238925
    potential(screened) =   -2.589752
       potential(ionic) =   -8.091187

   izeta = 2
                 rmatch =    2.696970
              splitnorm =    0.150000
                 energy =   -1.041987
                kinetic =    2.172223
    potential(screened) =   -3.214210
       potential(ionic) =   -9.191634

[...]

SPLIT: Basis orbitals for state 2p

[...]

   izeta = 2
                 rmatch =    3.312873
              splitnorm =    0.150000
                 energy =   -0.376057
                kinetic =    4.835938
    potential(screened) =   -5.211995
       potential(ionic) =  -11.044105
*Note: V_local used for l= 2

** Using vlocal for PAOs with L= 2

POLgen: Perturbative polarization orbital with L=  2

POLgen: Polarization orbital for state 2p
*Note: V_local used for lpol= 2

** Using vlocal for PAOs with L= 2
Split based on tail norm

   izeta = 1
                     rc =    5.253677
                 energy =    1.558482
                kinetic =    2.921564
    potential(screened) =   -1.363082
       potential(ionic) =   -5.578203
atom: Total number of Sankey-type orbitals: 13

atm_pop: Valence configuration (for local Pseudopot. screening):
 2s( 2.00)
 2p( 3.00)
 3d( 0.00)
Vna: chval, zval:    5.00000   5.00000

Vna:  Cut-off radius for the neutral-atom potential:   5.253677
comcore: Pseudo-core radius Rcore=  1.572221

atom: _________________________________________________________________________

<basis_specs>
B                    Z=   5    Mass=  10.810        Charge= 0.17977+309
Lmxo=2 Lmxkb= 1    BasisType=split      Semic=F
L=0  Nsemic=0  Cnfigmx=2
          i=1  nzeta=2  polorb=0  (2s)
            splnorm:   0.15000
               vcte:    40.000
               rinn:  -0.90000
               qcoe:    0.0000
               qyuk:    0.0000
               qwid:   0.10000E-01
                rcs:    0.0000      0.0000
            lambdas:    1.0000      1.0000
L=1  Nsemic=0  Cnfigmx=2
          i=1  nzeta=2  polorb=1  (2p)  (to be polarized perturbatively)
            splnorm:   0.15000
               vcte:    40.000
               rinn:  -0.90000
               qcoe:    0.0000
               qyuk:    0.0000
               qwid:   0.10000E-01
                rcs:    0.0000      0.0000
            lambdas:    1.0000      1.0000
L=2  Nsemic=0  Cnfigmx=3
          i=1  nzeta=0  polorb=0  (3d)  (perturbative polarization orbital) (from 2p)
L=0  Nkbl=1  erefs: 0.17977+309
L=1  Nkbl=1  erefs: 0.17977+309
</basis_specs>

Using PAO.SplitTailNorm
atom: Called for B                     (Z =   5)
NOTE: B pseudopotential has channels up to l= 1
NOTE: PAOs with higher l will be generated with V_local
Maximum radius (at nrval) set to   50.00000 8518

read_vps: Pseudopotential generation method:
read_vps: ONCVPSP-3.Hamann's oncvpsp
Valence charge in pseudo generation:    3.00000

read_vps: Pseudopotential includes a core correction:
read_vps: Pseudo-core for xc-correction

xc_check: Exchange-correlation functional:
xc_check: GGA PBEsol
Got Vlocal (oncv-fit) from psml data
Choosing vlocal chloc cutoff:  3.201794
qtot up to nchloc:    3.00023194
atom: Maximum radius for chlocal:    3.20179
atom: Maximum radius for r*vlocal+2*Zval:    3.20179
Reading KB projs from B psml data
Using scalar-relativistic projectors in PSML file

PSML: Kleinman-Bylander projectors:
   l= 0   rc=  1.223468   Ekb= 16.933205
   l= 0   rc=  1.223468   Ekb=  2.495260
   l= 1   rc=  1.223468   Ekb= -7.218359
   l= 1   rc=  1.223468   Ekb= -1.645242

PSML: Total number of  Kleinman-Bylander projectors:   8
atom: -------------------------------------------------------------------------

atom: SANKEY-TYPE ORBITALS:
atom: Selected multiple-zeta basis: split

[...]

SPLIT: Basis orbitals for state 2s

[...]

   izeta = 2
                 rmatch =    3.823698
              splitnorm =    0.150000
                 energy =   -0.502064
                kinetic =    1.116406
    potential(screened) =   -1.618470
       potential(ionic) =   -3.792969

SPLIT: Orbitals with angular momentum L= 1

SPLIT: Basis orbitals for state 2p

SPLIT: PAO cut-off radius determined from an
SPLIT: energy shift=  0.005000 Ry
Split based on tail norm

   izeta = 1
                 lambda =    1.000000
                     rc =    7.066857
                 energy =   -0.255540
                kinetic =    1.512761
    potential(screened) =   -1.768301
       potential(ionic) =   -3.690166

   izeta = 2
                 rmatch =    4.748011
              splitnorm =    0.150000
[...]
redata: Require H convergence for SCF               =   T
redata: Hamiltonian tolerance for SCF               =     0.001000 eV
redata: Require (free) Energy convergence for SCF   =   F
redata: (free) Energy tolerance for SCF             =     0.000100 eV
redata: Using DFT-D3 dispersion                     =   F
redata: Using Saved Data (generic)                  =   F
redata: Use continuation files for DM               =   T
redata: Neglect nonoverlap interactions             =   F
redata: Method of Calculation                       = Diagonalization
redata: Electronic Temperature                      =    50.0000 K
redata: Fix the spin of the system                  =   F
redata: Max. number of TDED Iter                    =        1
redata: Number of TDED substeps                     =        3
redata: Dynamics option                             = Single-point calculation
mix.SCF: Pulay mixing                            = Pulay
mix.SCF:    Variant                              = stable
mix.SCF:    History steps                        = 10
mix.SCF:    Linear mixing weight                 =     0.025000
mix.SCF:    Mixing weight                        =     0.025000
mix.SCF:    SVD condition                        = 0.1000E-07
redata: ***********************************************************************

%block SCF.Mixers
  Pulay
%endblock SCF.Mixers

%block SCF.Mixer.Pulay
  # Mixing method
  method pulay
  variant stable

  # Mixing options
  weight 0.0250
  weight.linear 0.0250
  history 10
%endblock SCF.Mixer.Pulay

DM_history_depth set to one: no extrapolation allowed by default for geometry relaxation
Size of DM history Fstack: 1
Total number of electrons:    32.000000
Total ionic charge:    32.000000

* ProcessorY, Blocksize:    4   4

* Orbital distribution balance (max,min):     8     4

k-point displ. along   1 input, could be:     0.00    0.50
k-point displ. along   2 input, could be:     0.00    0.50
k-point displ. along   3 input, could be:     0.00    0.50
 Kpoints in:          144 . Kpoints trimmed:          132

siesta: k-grid: Number of k-points = 132
siesta: k-points from Monkhorst-Pack grid
siesta: k-cutoff (effective) =    10.942 Ang
siesta: k-point supercell and displacements
siesta: k-grid:     6     0     0      0.000
siesta: k-grid:     0     6     0      0.000
siesta: k-grid:     0     0     6      0.000

diag: Algorithm                                     = D&C
diag: Parallel over k                               =   F
diag: Use parallel 2D distribution                  =   T
diag: Parallel block-size                           = 4
diag: Parallel distribution                         =     4 x     6
diag: Used triangular part                          = Lower
diag: Absolute tolerance                            =  0.100E-15
diag: Orthogonalization factor                      =  0.100E-05

superc: Internal auxiliary supercell:     5 x     5 x     5  =     125
superc: Number of atoms, orbitals, and projectors:   1000  13000   8000

ts: **************************************************************
ts: Save H and S matrices                           =    F
ts: Save DM and EDM matrices                        =    F
ts: Only save the overlap matrix S                  =    F
ts: **************************************************************

************************ Begin: TS CHECKS AND WARNINGS ************************
************************ End: TS CHECKS AND WARNINGS **************************

                        Single-point calculation

superc: Internal auxiliary supercell:     5 x     5 x     5  =     125
superc: Number of atoms, orbitals, and projectors:   1000  13000   8000

outcell: Unit cell vectors (Ang):
        3.674540    0.000000    0.000000
        0.000000    3.647410    0.000000
        0.000000    0.000000    3.668550

outcell: Cell vector modules (Ang)   :    3.674540    3.647410    3.668550
outcell: Cell angles (23,13,12) (deg):     90.0000     90.0000     90.0000
outcell: Cell volume (Ang**3)        :     49.1679
<dSpData1D:S at geom step 0
  <sparsity:sparsity for geom step 0
    nrows_g=104 nrows=8 sparsity=1.4094 nnzs=15244, refcount: 7>
  <dData1D:(new from dSpData1D) n=15244, refcount: 1>
refcount: 1>
new_DM -- step:     1
Initializing Density Matrix...

Attempting to read DM from file... Failed...
DM filled with atomic data:
<dSpData2D:DM initialized from atoms
  <sparsity:sparsity for geom step 0
    nrows_g=104 nrows=8 sparsity=1.4094 nnzs=15244, refcount: 8>
  <dData2D:DM n=15244 m=1, refcount: 1>
refcount: 1>
No. of atoms with KB's overlaping orbs in proc 0. Max # of overlaps:      61     413

InitMesh: MESH = 48 x 48 x 48 = 110592
InitMesh: Mesh cutoff (required, used) =   400.000   471.605 Ry
New grid distribution [1]: sub = 2
New grid distribution [2]: sub = 2
New grid distribution [3]: sub = 2
Setting up quadratic distribution...

stepf: Fermi-Dirac step function

siesta: Program's energy decomposition (eV):
siesta: Ebs     =      -452.685108
siesta: Eions   =      2442.366599
siesta: Ena     =       591.144639
siesta: Ekin    =      1052.730010
siesta: Enl     =      -123.243671
siesta: Eso     =         0.000000
siesta: Edftu   =         0.000000
siesta: DEna    =       -59.749765
siesta: DUscf   =         6.838171
siesta: DUext   =         0.000000
siesta: Ex      =      -433.418209
siesta: Ec      =       -44.110372
siesta: Exc     =      -477.528581
siesta: EbV     =         0.000000
siesta: eta*DQ  =         0.000000
siesta: Emadel  =         0.000000
siesta: Emeta   =         0.000000
siesta: Emolmec =         0.000000
siesta: Ekinion =         0.000000
siesta: Eharris =     -1425.572923
siesta: Etot    =     -1452.175797
siesta: FreeEng =     -1452.175797

        iscf     Eharris(eV)        E_KS(eV)     FreeEng(eV)     dDmax    Ef(eV) dHmax(eV)
   scf:    1    -1425.572923    -1452.175797    -1452.175797  1.659454 -4.917355  3.895691
 IterSCF                          1       1.671  100.00
  compute_dm                      1       1.464   87.59
  setup_H                         1       0.204   12.21
  MIXER                           1       0.000    0.00
   scf:    2    -1452.688360    -1452.434484    -1452.434484  0.012438 -4.876519  3.676237
   scf:    3    -1454.804940    -1454.333424    -1454.333424  0.182934 -4.193100  0.426219
   scf:    4    -1454.168728    -1454.254193    -1454.254193  0.036197 -4.287724  0.636048
   scf:    5    -1454.485464    -1454.398823    -1454.398823  0.103006 -3.996870  0.074017
   scf:    6    -1454.395085    -1454.397527    -1454.397527  0.002410 -4.003827  0.077257
   scf:    7    -1454.397891    -1454.398709    -1454.398709  0.002269 -3.995267  0.041503
   scf:    8    -1454.399058    -1454.398894    -1454.398894  0.002296 -3.999967  0.024248
   scf:    9    -1454.399166    -1454.399060    -1454.399060  0.000720 -3.998443  0.010531
   scf:   10    -1454.399082    -1454.399074    -1454.399074  0.001181 -4.000274  0.001485
mix: Pulay -- inversion failed, > SVD [rank/size] 6 / 9
   scf:   11    -1454.399074    -1454.399074    -1454.399074  0.000192 -4.000793  0.000505
mix: Pulay -- inversion failed, > SVD [rank/size] 5 / 9
   scf:   12    -1454.399074    -1454.399074    -1454.399074  0.000112 -4.000995  0.000190
mix: Pulay -- inversion failed, > SVD [rank/size] 6 / 9
   scf:   13    -1454.399073    -1454.399074    -1454.399074  0.000039 -4.000986  0.001352
mix: Pulay -- inversion failed, > SVD [rank/size] 5 / 9
   scf:   14    -1454.399074    -1454.399074    -1454.399074  0.000038 -4.000996  0.000176
   scf:   15    -1454.399074    -1454.399074    -1454.399074  0.000026 -4.001017  0.000193
   scf:   16    -1454.399074    -1454.399074    -1454.399074  0.000006 -4.000995  0.000173

SCF Convergence by DM+H criterion
max |DM_out - DM_in|         :     0.0000057804
max |H_out - H_in|      (eV) :     0.0001729896
SCF cycle converged after 16 iterations

Using DM_out to compute the final energy and forces
No. of atoms with KB's overlaping orbs in proc 0. Max # of overlaps:      61     413

siesta: E_KS(eV) =            -1454.3991

siesta: E_KS - E_eggbox =     -1454.3991

siesta: Atomic forces (eV/Ang):
   Tot    0.000436   -0.000384    0.001205
   Max    0.602277
   Res    0.269373    sqrt( Sum f_i^2 / 3N )
   Max    0.602277    constrained

Stress tensor Voigt[x,y,z,yz,xz,xy] (kbar):      167.74      123.41      157.47       -0.21       -0.53       -1.49
(Free)E + p*V (eV/cell)    -1458.9881
Target enthalpy (eV/cell)    -1454.3991

siesta: Program's energy decomposition (eV):
siesta: Ebs     =      -485.737440
siesta: Eions   =      2442.366599
siesta: Ena     =       591.144639
siesta: Ekin    =      1000.666235
siesta: Enl     =      -106.957575
siesta: Eso     =         0.000000
siesta: Edftu   =         0.000000
siesta: DEna    =       -31.316752
siesta: DUscf   =         2.666091
siesta: DUext   =         0.000000
siesta: Ex      =      -423.818627
siesta: Ec      =       -44.416486
siesta: Exc     =      -468.235113
siesta: EbV     =         0.000000
siesta: eta*DQ  =         0.000000
siesta: Emadel  =         0.000000
siesta: Emeta   =         0.000000
siesta: Emolmec =         0.000000
siesta: Ekinion =         0.000000
siesta: Eharris =     -1454.399074
siesta: Etot    =     -1454.399074
siesta: FreeEng =     -1454.399074

siesta: Final energy (eV):
siesta:  Band Struct. =    -485.737440
siesta:       Kinetic =    1000.666235
siesta:       Hartree =     195.938457
siesta:         Edftu =       0.000000
siesta:       Eso     =       0.000000
siesta:    Ext. field =       0.000000
siesta:         Exch. =    -423.818627
siesta:         Corr. =     -44.416486
siesta:     Bulk bias =       0.000000
siesta:   Exch.-corr. =    -468.235113
siesta:  Ion-electron =   -1344.334016
siesta:       Ion-ion =    -838.434638
siesta:       Ekinion =       0.000000
siesta: D3 dispersion =       0.000000
siesta:         Total =   -1454.399074
siesta:         Fermi =      -4.000995

siesta: Atomic forces (eV/Ang):
siesta:      1   -0.106776    0.186103   -0.170786
siesta:      2    0.045154   -0.408109   -0.383763
siesta:      3    0.054121    0.035706   -0.120107
siesta:      4    0.255351    0.069996    0.275444
siesta:      5    0.366119    0.410984    0.286169
siesta:      6    0.401629   -0.126458    0.055092
siesta:      7   -0.412884    0.064509   -0.086980
siesta:      8   -0.602277   -0.233116    0.146135
siesta: ----------------------------------------
siesta:    Tot    0.000436   -0.000384    0.001205

siesta: Stress tensor (static) (eV/Ang**3):
siesta:     0.104695   -0.000928   -0.000334
siesta:    -0.000928    0.077024   -0.000130
siesta:    -0.000334   -0.000130    0.098284

siesta: Cell volume =         49.167939 Ang**3

siesta: Pressure (static):
siesta:                Solid            Molecule  Units
siesta:          -0.00101654         -0.00084073  Ry/Bohr**3
siesta:          -0.09333407         -0.07719250  eV/Ang**3
siesta:        -149.53765971       -123.67601344  kBar
(Free)E+ p_basis*V_orbitals  =       -1449.815060
(Free)Eharris+ p_basis*V_orbitals  =       -1449.815060

cite: Please see "aiida.bib" for an exhaustive BiBTeX file.
cite: Please clearly indicate Siesta version in published work: NO_VERSION_LABEL_AVAILABLE
cite: This calculation has made use of the following articles
cite: which are encouraged to be cited in a published work.
        Primary SIESTA paper
          DOI: www.doi.org/10.1088/0953-8984/14/11/302

 global_section                   1      27.998  100.00
  siesta                          1      27.998  100.00
   Setup                          1       0.143    0.51
    bands                         1       0.000    0.00
    KSV_init                      1       0.000    0.00
   IterGeom                       1      27.833   99.41
    geom_init                     1       1.464    5.23
     state_init                   1       0.152    0.54
      hsparse                     1       0.007    0.02
      overlap                     1       0.068    0.24
     Setup_H0                     1       1.099    3.93
      naefs                       1       0.001    0.00
      MolMec                      1       0.000    0.00
      kinefsm                     1       0.065    0.23
      nlefsm                      1       0.316    1.13
      DHSCF_Init                  1       0.717    2.56
       DHSCF1                     1       0.045    0.16
        INITMESH                  1       0.000    0.00
       DHSCF2                     1       0.672    2.40
        REMESH                    1       0.227    0.81
         INITMESH                 2       0.080    0.29
          SPLOAD                  2       0.080    0.29
        REORD                     2       0.000    0.00
        PHION                     1       0.331    1.18
        COMM_BSC                  1       0.000    0.00
        POISON                    1       0.001    0.00
         fft                      2       0.001    0.00
     setup_H                      1       0.213    0.76
      DHSCF                       1       0.213    0.76
       DHSCF3                     1       0.213    0.76
        rhoofd                    1       0.108    0.39
        COMM_BSC                  2       0.021    0.07
        POISON                    1       0.001    0.00
         fft                      2       0.001    0.00
        XC                        1       0.007    0.02
         COMM_BSC                 2       0.000    0.00
         GXC-CellXC               1       0.007    0.02
          gridxc@cellXC           1       0.007    0.02
        vmat                      1       0.076    0.27
    IterSCF                      16      25.678   91.71
     compute_dm                  16      22.173   79.19
      diagon                     16      22.171   79.19
       c-eigval                2112      10.352   36.97
        c-buildHS              2112       0.442    1.58
        cdiag                  2112       9.909   35.39
         cdiag1                2112       0.564    2.01
         cdiag2                2112       1.341    4.79
         cdiag3                2112       7.825   27.95
       c-eigvec                2112      10.804   38.59
        cdiag                  2112      10.368   37.03
         cdiag1                2112       0.568    2.03
         cdiag2                2112       1.343    4.80
         cdiag3                2112       7.828   27.96
         cdiag4                2112       0.382    1.36
       c-buildD                2112       1.005    3.59
     setup_H                     16       3.439   12.28
      DHSCF                      16       3.438   12.28
       DHSCF3                    16       3.438   12.28
        rhoofd                   16       1.706    6.09
        COMM_BSC                 32       0.380    1.36
        POISON                   16       0.064    0.23
         fft                     32       0.064    0.23
        XC                       16       0.098    0.35
         COMM_BSC                32       0.002    0.01
         GXC-CellXC              16       0.097    0.34
          gridxc@cellXC          16       0.096    0.34
        vmat                     16       1.188    4.24
     MIXER                       15       0.009    0.03
    PostSCF                       1       0.690    2.47
     naefs                        1       0.000    0.00
     kinefsm                      1       0.004    0.01
     nlefsm                       1       0.055    0.20
     DHSCF                        1       0.581    2.08
      DHSCF3                      1       0.196    0.70
       rhoofd                     1       0.110    0.39
       COMM_BSC                   2       0.013    0.05
       POISON                     1       0.001    0.00
        fft                       2       0.001    0.00
       XC                         1       0.005    0.02
        COMM_BSC                  2       0.000    0.00
        GXC-CellXC                1       0.004    0.02
         gridxc@cellXC            1       0.004    0.02
       vmat                       1       0.067    0.24
      DHSCF4                      1       0.386    1.38
       REORD                     10       0.000    0.00
       COMM_BSC                   2       0.004    0.01
       dfscf                      1       0.323    1.15
     overfsm                      1       0.004    0.01
     MolMec                       1       0.000    0.00
     writeHSX                     1       0.005    0.02
    state_analysis                1       0.001    0.00
    siesta_move                   1       0.000    0.00
   Analysis                       1       0.019    0.07
    optical                       1       0.000    0.00

>> End of run:  17-APR-2024   1:30:54
Job completed