Runtime information:
* Directory : /home/ICN2/jgarridoa/aiida_run/23/38/891b-602a-4a88-a4b5-7e4e3a067e91
>> Start of run:  22-APR-2024  14:34:25

reinit: Reading from standard input
reinit: Dumping input in INPUT_TMP.00390
************************** Dump of input data file ****************************
atomiccoordinatesformat Ang
cdfsave True
dminitspinaf False
dmmixingweight 0.025
dmmixscf1 True
dmnumberpulay 10
dmtolerance 1e-05
electronictemperature 50.000 K
geometrymustconverge T
latticeconstant 1.0 Ang
maxscfiterations 1000
meshcutoff 400 Ry
noncollinearspin False
numberofatoms 2
numberofspecies 2
savehs True
solutionmethod diagon
spinorbit False
spinpolarized False
systemlabel aiida
systemname aiida
usetreetimer T
writedmhsnetcdf True
writeorbmom True
xcauthors PBEsol
xcfunctional GGA
xmlwrite T
#
# -- Basis Set Info follows
#
PAO-BasisSize DZP
PAO-SplitNorm 0.15
PAO-EnergyShift 0.005 Ry
#
# -- Structural Info follows
#
%block chemicalspecieslabel
    1     7      N
    2     5      B
%endblock chemicalspecieslabel
%block lattice-vectors
      3.5999900000       0.0000000000       0.0000000000
      0.0000000000       3.5999900000       0.0000000000
      0.0000000000       0.0000000000       3.5999900000
%endblock lattice-vectors
%block atomiccoordinatesandatomicspecies
      0.0000000000       0.0000000000       3.3314667459    1      N      1
      0.0000000000       0.0000000000       1.0985009486    2      B      2
%endblock atomiccoordinatesandatomicspecies
#
# -- K-points Info follows
#
%block kgrid_monkhorst_pack
    12      0      0       0.0000000000
     0     12      0       0.0000000000
     0      0     12       0.0000000000
%endblock kgrid_monkhorst_pack
#
#
maxwalltime 7200000
************************** End of input data file *****************************

reinit: -----------------------------------------------------------------------
reinit: System Name: aiida
reinit: -----------------------------------------------------------------------
reinit: System Label: aiida
reinit: -----------------------------------------------------------------------

initatom: Reading input for the pseudopotentials and atomic orbitals ----------
Species number:   1 Atomic number:    7 Label: N
Species number:   2 Atomic number:    5 Label: B

---- Processing specs for species: N
Ground state valence configuration:   2s02  2p03
Reading pseudopotential information in PSML from:
  N.psml
PSML file version: 1.1
GGA--PBEsol XC_GGA_X_PBE_SOL--XC_GGA_C_PBE_SOL ps
PSML uuid: 56b43770-1d5f-11e8-525f-e1e3c77dc801

---- Processing specs for species: B
Ground state valence configuration:   2s02  2p01
Reading pseudopotential information in PSML from:
  B.psml
PSML file version: 1.1
GGA--PBEsol XC_GGA_X_PBE_SOL--XC_GGA_C_PBE_SOL ps
PSML uuid: 4c4355a0-1d5f-11e8-6182-f22cff9f01b0

---- Pseudopotential check for N

Pseudized shells:
2s( 2.00) rc: 1.21
2p( 3.00) rc: 1.36
Valence configuration for ps generation: 2s:2p: Total charge:   5.000000

---- Pseudopotential check for B

Pseudized shells:
2s( 2.00) rc: 1.21
2p( 1.00) rc: 1.21
Valence configuration for ps generation: 2s:2p: Total charge:   3.000000
For N, standard SIESTA heuristics set lmxkb to 3
 (one more than the basis l, including polarization orbitals).
Use PS.lmax or PS.KBprojectors blocks to override.
For B, standard SIESTA heuristics set lmxkb to 3
 (one more than the basis l, including polarization orbitals).
Use PS.lmax or PS.KBprojectors blocks to override.
N pseudopotential only contains V_ls up to l=1 -- lmxkb reset.
B pseudopotential only contains V_ls up to l=1 -- lmxkb reset.

<basis_specs>
N                    Z=   7    Mass=  14.007        Charge= 0.17977+309
Lmxo=2 Lmxkb= 1    BasisType=split      Semic=F
L=0  Nsemic=0  Cnfigmx=2
          i=1  nzeta=2  polorb=0  (2s)
            splnorm:   0.15000
               vcte:    40.000
               rinn:  -0.90000
               qcoe:    0.0000
               qyuk:    0.0000
               qwid:   0.10000E-01
                rcs:    0.0000      0.0000
            lambdas:    1.0000      1.0000
L=1  Nsemic=0  Cnfigmx=2
          i=1  nzeta=2  polorb=1  (2p)  (to be polarized perturbatively)
            splnorm:   0.15000
               vcte:    40.000
               rinn:  -0.90000
               qcoe:    0.0000
               qyuk:    0.0000
               qwid:   0.10000E-01
                rcs:    0.0000      0.0000
            lambdas:    1.0000      1.0000
L=2  Nsemic=0  Cnfigmx=3
          i=1  nzeta=0  polorb=0  (3d)  (perturbative polarization orbital) (from 2p)
L=0  Nkbl=1  erefs: 0.17977+309
L=1  Nkbl=1  erefs: 0.17977+309
</basis_specs>

Using PAO.SplitTailNorm
atom: Called for N                     (Z =   7)
NOTE: N pseudopotential has channels up to l= 1
NOTE: PAOs with higher l will be generated with V_local
Maximum radius (at nrval) set to   50.00000 8518

read_vps: Pseudopotential generation method:
read_vps: ONCVPSP-3.Hamann's oncvpsp
Valence charge in pseudo generation:    5.00000

read_vps: Pseudopotential includes a core correction:
read_vps: Pseudo-core for xc-correction

xc_check: Exchange-correlation functional:
xc_check: GGA PBEsol
Got Vlocal (oncv-fit) from psml data
Choosing vlocal chloc cutoff:  6.038618
qtot up to nchloc:    4.99997633
atom: Maximum radius for chlocal:    6.03862
atom: Maximum radius for r*vlocal+2*Zval:    6.03862
Reading KB projs from N psml data
Using scalar-relativistic projectors in PSML file

PSML: Kleinman-Bylander projectors:
   l= 0   rc=  1.214864   Ekb= 14.928379
   l= 0   rc=  1.221004   Ekb=  1.251736
   l= 1   rc=  1.375180   Ekb= -8.619428
   l= 1   rc=  1.375180   Ekb= -2.025883

PSML: Total number of  Kleinman-Bylander projectors:   8
atom: -------------------------------------------------------------------------

atom: SANKEY-TYPE ORBITALS:
atom: Selected multiple-zeta basis: split

SPLIT: Orbitals with angular momentum L= 0

SPLIT: Basis orbitals for state 2s

SPLIT: PAO cut-off radius determined from an
SPLIT: energy shift=  0.005000 Ry
Split based on tail norm

   izeta = 1
                 lambda =    1.000000
                     rc =    4.265195
                 energy =   -1.350827
                kinetic =    1.238925
    potential(screened) =   -2.589752
       potential(ionic) =   -8.091187

   izeta = 2
                 rmatch =    2.696970
              splitnorm =    0.150000
                 energy =   -1.041987
                kinetic =    2.172223
    potential(screened) =   -3.214210
       potential(ionic) =   -9.191634

[...]

SPLIT: Basis orbitals for state 2p

[...]

   izeta = 2
                 rmatch =    3.312873
              splitnorm =    0.150000
                 energy =   -0.376057
                kinetic =    4.835938
    potential(screened) =   -5.211995
       potential(ionic) =  -11.044105
*Note: V_local used for l= 2

** Using vlocal for PAOs with L= 2

POLgen: Perturbative polarization orbital with L=  2

POLgen: Polarization orbital for state 2p
*Note: V_local used for lpol= 2

** Using vlocal for PAOs with L= 2
Split based on tail norm

   izeta = 1
                     rc =    5.253677
                 energy =    1.558482
                kinetic =    2.921564
    potential(screened) =   -1.363082
       potential(ionic) =   -5.578203
atom: Total number of Sankey-type orbitals: 13

atm_pop: Valence configuration (for local Pseudopot. screening):
 2s( 2.00)
 2p( 3.00)
 3d( 0.00)
Vna: chval, zval:    5.00000   5.00000

Vna:  Cut-off radius for the neutral-atom potential:   5.253677
comcore: Pseudo-core radius Rcore=  1.572221

atom: _________________________________________________________________________

<basis_specs>
B                    Z=   5    Mass=  10.810        Charge= 0.17977+309
Lmxo=2 Lmxkb= 1    BasisType=split      Semic=F
L=0  Nsemic=0  Cnfigmx=2
          i=1  nzeta=2  polorb=0  (2s)
            splnorm:   0.15000
               vcte:    40.000
               rinn:  -0.90000
               qcoe:    0.0000
               qyuk:    0.0000
               qwid:   0.10000E-01
                rcs:    0.0000      0.0000
            lambdas:    1.0000      1.0000
L=1  Nsemic=0  Cnfigmx=2
          i=1  nzeta=2  polorb=1  (2p)  (to be polarized perturbatively)
            splnorm:   0.15000
               vcte:    40.000
               rinn:  -0.90000
               qcoe:    0.0000
               qyuk:    0.0000
               qwid:   0.10000E-01
                rcs:    0.0000      0.0000
            lambdas:    1.0000      1.0000
L=2  Nsemic=0  Cnfigmx=3
          i=1  nzeta=0  polorb=0  (3d)  (perturbative polarization orbital) (from 2p)
L=0  Nkbl=1  erefs: 0.17977+309
L=1  Nkbl=1  erefs: 0.17977+309
</basis_specs>

Using PAO.SplitTailNorm
atom: Called for B                     (Z =   5)
NOTE: B pseudopotential has channels up to l= 1
NOTE: PAOs with higher l will be generated with V_local
Maximum radius (at nrval) set to   50.00000 8518

read_vps: Pseudopotential generation method:
read_vps: ONCVPSP-3.Hamann's oncvpsp
Valence charge in pseudo generation:    3.00000

read_vps: Pseudopotential includes a core correction:
read_vps: Pseudo-core for xc-correction

xc_check: Exchange-correlation functional:
xc_check: GGA PBEsol
Got Vlocal (oncv-fit) from psml data
Choosing vlocal chloc cutoff:  3.201794
qtot up to nchloc:    3.00023194
atom: Maximum radius for chlocal:    3.20179
atom: Maximum radius for r*vlocal+2*Zval:    3.20179
Reading KB projs from B psml data
Using scalar-relativistic projectors in PSML file

PSML: Kleinman-Bylander projectors:
   l= 0   rc=  1.223468   Ekb= 16.933205
   l= 0   rc=  1.223468   Ekb=  2.495260
   l= 1   rc=  1.223468   Ekb= -7.218359
   l= 1   rc=  1.223468   Ekb= -1.645242

PSML: Total number of  Kleinman-Bylander projectors:   8
atom: -------------------------------------------------------------------------

atom: SANKEY-TYPE ORBITALS:
atom: Selected multiple-zeta basis: split

[...]

SPLIT: Basis orbitals for state 2s

[...]

   izeta = 2
                 rmatch =    3.823698
              splitnorm =    0.150000
                 energy =   -0.502064
                kinetic =    1.116406
    potential(screened) =   -1.618470
       potential(ionic) =   -3.792969

SPLIT: Orbitals with angular momentum L= 1

SPLIT: Basis orbitals for state 2p

SPLIT: PAO cut-off radius determined from an
SPLIT: energy shift=  0.005000 Ry
Split based on tail norm

   izeta = 1
                 lambda =    1.000000
                     rc =    7.066857
                 energy =   -0.255540
                kinetic =    1.512761
    potential(screened) =   -1.768301
       potential(ionic) =   -3.690166

   izeta = 2
                 rmatch =    4.748011
              splitnorm =    0.150000
                 energy =   -0.176810
                kinetic =    2.206388
    potential(screened) =   -2.383198
       potential(ionic) =   -4.488680
*Note: V_local used for l= 2

** Using vlocal for PAOs with L= 2

POLgen: Perturbative polarization orbital with L=  2

POLgen: Polarization orbital for state 2p
*Note: V_local used for lpol= 2

** Using vlocal for PAOs with L= 2
Split based on tail norm

   izeta = 1
                     rc =    7.066857
[...]
redata: Harris energy tolerance for SCF             =     0.000100 eV
redata: Require DM convergence for SCF              =   T
redata: DM tolerance for SCF                        =     0.000010
redata: Require EDM convergence for SCF             =   F
redata: EDM tolerance for SCF                       =     0.001000 eV
redata: Require H convergence for SCF               =   T
redata: Hamiltonian tolerance for SCF               =     0.001000 eV
redata: Require (free) Energy convergence for SCF   =   F
redata: (free) Energy tolerance for SCF             =     0.000100 eV
redata: Using DFT-D3 dispersion                     =   F
redata: Using Saved Data (generic)                  =   F
redata: Use continuation files for DM               =   T
redata: Neglect nonoverlap interactions             =   F
redata: Method of Calculation                       = Diagonalization
redata: Electronic Temperature                      =    50.0000 K
redata: Fix the spin of the system                  =   F
redata: Max. number of TDED Iter                    =        1
redata: Number of TDED substeps                     =        3
redata: Dynamics option                             = Single-point calculation
mix.SCF: Pulay mixing                            = Pulay
mix.SCF:    Variant                              = stable
mix.SCF:    History steps                        = 10
mix.SCF:    Linear mixing weight                 =     0.025000
mix.SCF:    Mixing weight                        =     0.025000
mix.SCF:    SVD condition                        = 0.1000E-07
redata: ***********************************************************************

%block SCF.Mixers
  Pulay
%endblock SCF.Mixers

%block SCF.Mixer.Pulay
  # Mixing method
  method pulay
  variant stable

  # Mixing options
  weight 0.0250
  weight.linear 0.0250
  history 10
%endblock SCF.Mixer.Pulay

DM_history_depth set to one: no extrapolation allowed by default for geometry relaxation
Size of DM history Fstack: 1
Total number of electrons:     8.000000
Total ionic charge:     8.000000

* ProcessorY, Blocksize:    6   1

* Orbital distribution balance (max,min):     2     1

k-point displ. along   1 input, could be:     0.00    0.50
k-point displ. along   2 input, could be:     0.00    0.50
k-point displ. along   3 input, could be:     0.00    0.50
 Kpoints in:         1008 . Kpoints trimmed:          948

siesta: k-grid: Number of k-points = 948
siesta: k-points from Monkhorst-Pack grid
siesta: k-cutoff (effective) =    21.600 Ang
siesta: k-point supercell and displacements
siesta: k-grid:    12     0     0      0.000
siesta: k-grid:     0    12     0      0.000
siesta: k-grid:     0     0    12      0.000

diag: Algorithm                                     = D&C
diag: Parallel over k                               =   F
diag: Use parallel 2D distribution                  =   T
diag: Parallel block-size                           = 1
diag: Parallel distribution                         =     4 x     6
diag: Used triangular part                          = Lower
diag: Absolute tolerance                            =  0.100E-15
diag: Orthogonalization factor                      =  0.100E-05

superc: Internal auxiliary supercell:     5 x     5 x     5  =     125
superc: Number of atoms, orbitals, and projectors:    250   3250   2000

ts: **************************************************************
ts: Save H and S matrices                           =    F
ts: Save DM and EDM matrices                        =    F
ts: Only save the overlap matrix S                  =    F
ts: **************************************************************

************************ Begin: TS CHECKS AND WARNINGS ************************
************************ End: TS CHECKS AND WARNINGS **************************

                        Single-point calculation

superc: Internal auxiliary supercell:     5 x     5 x     5  =     125
superc: Number of atoms, orbitals, and projectors:    250   3250   2000

outcell: Unit cell vectors (Ang):
        3.599990    0.000000    0.000000
        0.000000    3.599990    0.000000
        0.000000    0.000000    3.599990

outcell: Cell vector modules (Ang)   :    3.599990    3.599990    3.599990
outcell: Cell angles (23,13,12) (deg):     90.0000     90.0000     90.0000
outcell: Cell volume (Ang**3)        :     46.6556
<dSpData1D:S at geom step 0
  <sparsity:sparsity for geom step 0
    nrows_g=26 nrows=2 sparsity=1.5370 nnzs=1039, refcount: 7>
  <dData1D:(new from dSpData1D) n=1039, refcount: 1>
refcount: 1>
new_DM -- step:     1
Initializing Density Matrix...

Attempting to read DM from file... Failed...
DM filled with atomic data:
<dSpData2D:DM initialized from atoms
  <sparsity:sparsity for geom step 0
    nrows_g=26 nrows=2 sparsity=1.5370 nnzs=1039, refcount: 8>
  <dData2D:DM n=1039 m=1, refcount: 1>
refcount: 1>
No. of atoms with KB's overlaping orbs in proc 0. Max # of overlaps:      17     103

InitMesh: MESH = 48 x 48 x 48 = 110592
InitMesh: Mesh cutoff (required, used) =   400.000   491.340 Ry
New grid distribution [1]: sub = 2
New grid distribution [2]: sub = 2
New grid distribution [3]: sub = 2
Setting up quadratic distribution...

stepf: Fermi-Dirac step function

siesta: Program's energy decomposition (eV):
siesta: Ebs     =       -59.761773
siesta: Eions   =       610.591650
siesta: Ena     =       157.271112
siesta: Ekin    =       251.636430
siesta: Enl     =       -30.176489
siesta: Eso     =         0.000000
siesta: Edftu   =         0.000000
siesta: DEna    =       -14.220359
siesta: DUscf   =         6.503431
siesta: DUext   =         0.000000
siesta: Ex      =      -103.350564
siesta: Ec      =        -9.518304
siesta: Exc     =      -112.868868
siesta: EbV     =         0.000000
siesta: eta*DQ  =         0.000000
siesta: Emadel  =         0.000000
siesta: Emeta   =         0.000000
siesta: Emolmec =         0.000000
siesta: Ekinion =         0.000000
siesta: Eharris =      -347.739728
siesta: Etot    =      -352.446393
siesta: FreeEng =      -352.446393

        iscf     Eharris(eV)        E_KS(eV)     FreeEng(eV)     dDmax    Ef(eV) dHmax(eV)
   scf:    1     -347.739728     -352.446393     -352.446393  1.501010 -7.314846  9.132635
 IterSCF                          1       3.607  100.00
  compute_dm                      1       3.585   99.40
  setup_H                         1       0.021    0.58
  MIXER                           1       0.000    0.00
   scf:    2     -353.778522     -353.126833     -353.126833  0.013797 -7.162081  8.159040
   scf:    3     -355.662632     -355.915716     -355.915798  0.161096 -6.856542  1.292135
   scf:    4     -355.569741     -355.881383     -355.881402  0.058477 -7.107716  1.453741
   scf:    5     -356.184164     -356.085089     -356.085178  0.065710 -6.949788  0.269641
   scf:    6     -356.077292     -356.081673     -356.081760  0.005283 -6.968932  0.400643
   scf:    7     -356.091687     -356.086895     -356.086962  0.005080 -6.982039  0.342209
   scf:    8     -356.094176     -356.096225     -356.096381  0.016619 -6.999769  0.090198
   scf:    9     -356.094360     -356.095389     -356.095555  0.002143 -6.999205  0.149771
   scf:   10     -356.096187     -356.097039     -356.097113  0.010918 -6.999252  0.055910
   scf:   11     -356.096320     -356.096713     -356.096783  0.000758 -7.003486  0.097320
   scf:   12     -356.097442     -356.097139     -356.097220  0.001318 -6.999968  0.046299
   scf:   13     -356.097222     -356.097257     -356.097351  0.002274 -6.998362  0.009332
   scf:   14     -356.097226     -356.097243     -356.097338  0.000308 -6.998683  0.016633
   scf:   15     -356.097273     -356.097264     -356.097356  0.000621 -6.998411  0.001677
   scf:   16     -356.097264     -356.097264     -356.097356  0.000004 -6.998415  0.001584
   scf:   17     -356.097265     -356.097265     -356.097357  0.000067 -6.998465  0.000068
mix: Pulay -- inversion failed, > SVD [rank/size] 7 / 9
   scf:   18     -356.097265     -356.097265     -356.097357  0.000003 -6.998464  0.000009

SCF Convergence by DM+H criterion
max |DM_out - DM_in|         :     0.0000032351
max |H_out - H_in|      (eV) :     0.0000086386
SCF cycle converged after 18 iterations

Using DM_out to compute the final energy and forces
No. of atoms with KB's overlaping orbs in proc 0. Max # of overlaps:      17     103

siesta: E_KS(eV) =             -356.0973

siesta: E_KS - E_eggbox =      -356.0973

siesta: Atomic forces (eV/Ang):
   Tot   -0.000000   -0.000000   -0.000430
   Max    1.058915
   Res    0.611241    sqrt( Sum f_i^2 / 3N )
   Max    1.058915    constrained

Stress tensor Voigt[x,y,z,yz,xz,xy] (kbar):        7.90        7.90      585.67        0.00       -0.00       -0.00
(Free)E + p*V (eV/cell)     -361.9357
Target enthalpy (eV/cell)     -356.0974

siesta: Program's energy decomposition (eV):
siesta: Ebs     =       -94.859441
siesta: Eions   =       610.591650
siesta: Ena     =       157.271112
siesta: Ekin    =       222.413915
siesta: Enl     =       -20.801783
siesta: Eso     =         0.000000
siesta: Edftu   =         0.000000
siesta: DEna    =         0.738713
siesta: DUscf   =         0.794153
siesta: DUext   =         0.000000
siesta: Ex      =       -96.551091
siesta: Ec      =        -9.370634
siesta: Exc     =      -105.921724
siesta: EbV     =         0.000000
siesta: eta*DQ  =         0.000000
siesta: Emadel  =         0.000000
siesta: Emeta   =         0.000000
siesta: Emolmec =         0.000000
siesta: Ekinion =         0.000000
siesta: Eharris =      -356.097265
siesta: Etot    =      -356.097265
siesta: FreeEng =      -356.097357

siesta: Final energy (eV):
siesta:  Band Struct. =     -94.859441
siesta:       Kinetic =     222.413915
siesta:       Hartree =     129.083139
siesta:         Edftu =       0.000000
siesta:       Eso     =       0.000000
siesta:    Ext. field =       0.000000
siesta:         Exch. =     -96.551091
siesta:         Corr. =      -9.370634
siesta:     Bulk bias =       0.000000
siesta:   Exch.-corr. =    -105.921724
siesta:  Ion-electron =    -456.643801
siesta:       Ion-ion =    -145.028794
siesta:       Ekinion =       0.000000
siesta: D3 dispersion =       0.000000
siesta:         Total =    -356.097265
siesta:         Fermi =      -6.998464

siesta: Atomic forces (eV/Ang):
siesta:      1    0.000000   -0.000000    1.058485
siesta:      2   -0.000000   -0.000000   -1.058915
siesta: ----------------------------------------
siesta:    Tot   -0.000000   -0.000000   -0.000430

siesta: Stress tensor (static) (eV/Ang**3):
siesta:     0.004931    0.000000    0.000000
siesta:    -0.000000    0.004931    0.000000
siesta:    -0.000000    0.000000    0.365549

siesta: Cell volume =         46.655611 Ang**3

siesta: Pressure (static):
siesta:                Solid            Molecule  Units
siesta:          -0.00136291         -0.00154687  Ry/Bohr**3
siesta:          -0.12513707         -0.14202707  eV/Ang**3
siesta:        -200.49168920       -227.55245940  kBar
(Free)E+ p_basis*V_orbitals  =        -354.951353
(Free)Eharris+ p_basis*V_orbitals  =        -354.951353

cite: Please see "aiida.bib" for an exhaustive BiBTeX file.
cite: Please clearly indicate Siesta version in published work: NO_VERSION_LABEL_AVAILABLE
cite: This calculation has made use of the following articles
cite: which are encouraged to be cited in a published work.
        Primary SIESTA paper
          DOI: www.doi.org/10.1088/0953-8984/14/11/302

 global_section                   1      67.635  100.00
  siesta                          1      67.635  100.00
   Setup                          1       0.168    0.25
    bands                         1       0.000    0.00
    KSV_init                      1       0.000    0.00
   IterGeom                       1      67.421   99.68
    geom_init                     1       0.666    0.98
     state_init                   1       0.041    0.06
      hsparse                     1       0.000    0.00
      overlap                     1       0.020    0.03
     Setup_H0                     1       0.591    0.87
      naefs                       1       0.000    0.00
      MolMec                      1       0.000    0.00
      kinefsm                     1       0.016    0.02
      nlefsm                      1       0.187    0.28
      DHSCF_Init                  1       0.388    0.57
       DHSCF1                     1       0.045    0.07
        INITMESH                  1       0.000    0.00
       DHSCF2                     1       0.343    0.51
        REMESH                    1       0.178    0.26
         INITMESH                 2       0.130    0.19
          SPLOAD                  2       0.129    0.19
        REORD                     2       0.000    0.00
        PHION                     1       0.090    0.13
        COMM_BSC                  1       0.000    0.00
        POISON                    1       0.001    0.00
         fft                      2       0.001    0.00
     setup_H                      1       0.034    0.05
      DHSCF                       1       0.034    0.05
       DHSCF3                     1       0.034    0.05
        rhoofd                    1       0.012    0.02
        COMM_BSC                  2       0.001    0.00
        POISON                    1       0.003    0.01
         fft                      2       0.003    0.00
        XC                        1       0.008    0.01
         COMM_BSC                 2       0.000    0.00
         GXC-CellXC               1       0.008    0.01
          gridxc@cellXC           1       0.007    0.01
        vmat                      1       0.010    0.01
    IterSCF                      18      66.672   98.58
     compute_dm                  18      66.238   97.93
      diagon                     18      66.237   97.93
       c-eigval               17064      32.747   48.42
        c-buildHS             17064       0.256    0.38
        cdiag                 17064      32.481   48.02
         cdiag1               17064       3.097    4.58
         cdiag2               17064       6.850   10.13
         cdiag3               17064      21.710   32.10
       c-eigvec               17064      32.960   48.73
        cdiag                 17064      32.700   48.35
         cdiag1               17064       2.989    4.42
         cdiag2               17064       6.647    9.83
         cdiag3               17064      21.274   31.45
         cdiag4               17064       1.010    1.49
       c-buildD               17064       0.457    0.68
     setup_H                     18       0.425    0.63
      DHSCF                      18       0.425    0.63
       DHSCF3                    18       0.425    0.63
        rhoofd                   18       0.166    0.24
        COMM_BSC                 36       0.017    0.02
        POISON                   18       0.022    0.03
         fft                     36       0.021    0.03
        XC                       18       0.094    0.14
         COMM_BSC                36       0.003    0.00
         GXC-CellXC              18       0.091    0.13
          gridxc@cellXC          18       0.091    0.13
        vmat                     18       0.125    0.18
     MIXER                       17       0.001    0.00
    PostSCF                       1       0.082    0.12
     naefs                        1       0.000    0.00
     kinefsm                      1       0.000    0.00
     nlefsm                       1       0.003    0.01
     DHSCF                        1       0.077    0.11
      DHSCF3                      1       0.021    0.03
       rhoofd                     1       0.008    0.01
       COMM_BSC                   2       0.001    0.00
       POISON                     1       0.001    0.00
        fft                       2       0.001    0.00
       XC                         1       0.005    0.01
        COMM_BSC                  2       0.000    0.00
        GXC-CellXC                1       0.004    0.01
         gridxc@cellXC            1       0.004    0.01
       vmat                       1       0.006    0.01
      DHSCF4                      1       0.056    0.08
       REORD                     10       0.000    0.00
       COMM_BSC                   2       0.004    0.01
       dfscf                      1       0.032    0.05
     overfsm                      1       0.000    0.00
     MolMec                       1       0.000    0.00
     writeHSX                     1       0.001    0.00
    state_analysis                1       0.001    0.00
    siesta_move                   1       0.000    0.00
   Analysis                       1       0.044    0.07
    optical                       1       0.000    0.00

>> End of run:  22-APR-2024  14:35:33
Job completed