Runtime information:
* Directory : /home/ICN2/jgarridoa/aiida_run/c4/70/0d91-2cb4-4517-a21b-1791a56dadd4
>> Start of run:  13-APR-2024  13:45:37

reinit: Reading from standard input
reinit: Dumping input in INPUT_TMP.55746
************************** Dump of input data file ****************************
atomiccoordinatesformat Ang
cdfsave True
dminitspinaf False
dmmixingweight 0.025
dmmixscf1 True
dmnumberpulay 10
dmtolerance 1e-05
electronictemperature 50.000 K
geometrymustconverge T
latticeconstant 1.0 Ang
maxscfiterations 1000
meshcutoff 400 Ry
noncollinearspin False
numberofatoms 3
numberofspecies 3
savehs True
solutionmethod diagon
spinorbit False
spinpolarized False
systemlabel aiida
systemname aiida
usetreetimer T
writedmhsnetcdf True
writeorbmom True
xcauthors PBEsol
xcfunctional GGA
xmlwrite T
#
# -- Basis Set Info follows
#
PAO-BasisSize DZP
PAO-SplitNorm 0.15
PAO-EnergyShift 0.005 Ry
#
# -- Structural Info follows
#
%block chemicalspecieslabel
    1     5      B
    2     6      C
    3     7      N
%endblock chemicalspecieslabel
%block lattice-vectors
      3.5999900000       0.0000000000       0.0000000000
      0.0000000000       3.5999900000       0.0000000000
      0.0000000000       0.0000000000       3.5999900000
%endblock lattice-vectors
%block atomiccoordinatesandatomicspecies
      3.3844585987       0.0000000000       0.0000000000    1      B      1
      0.5056545954       1.1386408371       1.1257888728    2      C      2
      2.9929956861       0.3812029411       0.8533416296    3      N      3
%endblock atomiccoordinatesandatomicspecies
#
# -- K-points Info follows
#
%block kgrid_monkhorst_pack
     8      0      0       0.0000000000
     0      8      0       0.0000000000
     0      0      8       0.0000000000
%endblock kgrid_monkhorst_pack
#
#
maxwalltime 7200000
************************** End of input data file *****************************

reinit: -----------------------------------------------------------------------
reinit: System Name: aiida
reinit: -----------------------------------------------------------------------
reinit: System Label: aiida
reinit: -----------------------------------------------------------------------

initatom: Reading input for the pseudopotentials and atomic orbitals ----------
Species number:   1 Atomic number:    5 Label: B
Species number:   2 Atomic number:    6 Label: C
Species number:   3 Atomic number:    7 Label: N

---- Processing specs for species: B
Ground state valence configuration:   2s02  2p01
Reading pseudopotential information in PSML from:
  B.psml
PSML file version: 1.1
GGA--PBEsol XC_GGA_X_PBE_SOL--XC_GGA_C_PBE_SOL ps
PSML uuid: 4c4355a0-1d5f-11e8-6182-f22cff9f01b0

---- Processing specs for species: C
Ground state valence configuration:   2s02  2p02
Reading pseudopotential information in PSML from:
  C.psml
PSML file version: 1.1
GGA--PBEsol XC_GGA_X_PBE_SOL--XC_GGA_C_PBE_SOL ps
PSML uuid: 51a02af0-1d5f-11e8-49c3-12b9ebd99919

---- Processing specs for species: N
Ground state valence configuration:   2s02  2p03
Reading pseudopotential information in PSML from:
  N.psml
PSML file version: 1.1
GGA--PBEsol XC_GGA_X_PBE_SOL--XC_GGA_C_PBE_SOL ps
PSML uuid: 56b43770-1d5f-11e8-525f-e1e3c77dc801

---- Pseudopotential check for B

Pseudized shells:
2s( 2.00) rc: 1.21
2p( 1.00) rc: 1.21
Valence configuration for ps generation: 2s:2p: Total charge:   3.000000

[...]

Pseudized shells:
2s( 2.00) rc: 1.20
2p( 2.00) rc: 1.26
Valence configuration for ps generation: 2s:2p: Total charge:   4.000000

---- Pseudopotential check for N

Pseudized shells:
2s( 2.00) rc: 1.21
2p( 3.00) rc: 1.36
Valence configuration for ps generation: 2s:2p: Total charge:   5.000000
For B, standard SIESTA heuristics set lmxkb to 3
 (one more than the basis l, including polarization orbitals).
Use PS.lmax or PS.KBprojectors blocks to override.
For C, standard SIESTA heuristics set lmxkb to 3
 (one more than the basis l, including polarization orbitals).
Use PS.lmax or PS.KBprojectors blocks to override.
For N, standard SIESTA heuristics set lmxkb to 3
 (one more than the basis l, including polarization orbitals).
Use PS.lmax or PS.KBprojectors blocks to override.
B pseudopotential only contains V_ls up to l=1 -- lmxkb reset.
C pseudopotential only contains V_ls up to l=1 -- lmxkb reset.
N pseudopotential only contains V_ls up to l=1 -- lmxkb reset.

<basis_specs>
B                    Z=   5    Mass=  10.810        Charge= 0.17977+309
Lmxo=2 Lmxkb= 1    BasisType=split      Semic=F
L=0  Nsemic=0  Cnfigmx=2
          i=1  nzeta=2  polorb=0  (2s)
            splnorm:   0.15000
               vcte:    40.000
               rinn:  -0.90000
               qcoe:    0.0000
               qyuk:    0.0000
               qwid:   0.10000E-01
                rcs:    0.0000      0.0000
            lambdas:    1.0000      1.0000
L=1  Nsemic=0  Cnfigmx=2
          i=1  nzeta=2  polorb=1  (2p)  (to be polarized perturbatively)
            splnorm:   0.15000
               vcte:    40.000
               rinn:  -0.90000
               qcoe:    0.0000
               qyuk:    0.0000
               qwid:   0.10000E-01
                rcs:    0.0000      0.0000
            lambdas:    1.0000      1.0000
L=2  Nsemic=0  Cnfigmx=3
          i=1  nzeta=0  polorb=0  (3d)  (perturbative polarization orbital) (from 2p)
L=0  Nkbl=1  erefs: 0.17977+309
L=1  Nkbl=1  erefs: 0.17977+309
</basis_specs>

Using PAO.SplitTailNorm
atom: Called for B                     (Z =   5)
NOTE: B pseudopotential has channels up to l= 1
NOTE: PAOs with higher l will be generated with V_local
Maximum radius (at nrval) set to   50.00000 8518

read_vps: Pseudopotential generation method:
read_vps: ONCVPSP-3.Hamann's oncvpsp
Valence charge in pseudo generation:    3.00000

read_vps: Pseudopotential includes a core correction:
read_vps: Pseudo-core for xc-correction

xc_check: Exchange-correlation functional:
xc_check: GGA PBEsol
Got Vlocal (oncv-fit) from psml data
Choosing vlocal chloc cutoff:  3.201794
qtot up to nchloc:    3.00023194
atom: Maximum radius for chlocal:    3.20179
atom: Maximum radius for r*vlocal+2*Zval:    3.20179
Reading KB projs from B psml data
Using scalar-relativistic projectors in PSML file

PSML: Kleinman-Bylander projectors:
   l= 0   rc=  1.223468   Ekb= 16.933205
   l= 0   rc=  1.223468   Ekb=  2.495260
   l= 1   rc=  1.223468   Ekb= -7.218359
   l= 1   rc=  1.223468   Ekb= -1.645242

PSML: Total number of  Kleinman-Bylander projectors:   8
atom: -------------------------------------------------------------------------

atom: SANKEY-TYPE ORBITALS:
atom: Selected multiple-zeta basis: split

SPLIT: Orbitals with angular momentum L= 0

SPLIT: Basis orbitals for state 2s

SPLIT: PAO cut-off radius determined from an
SPLIT: energy shift=  0.005000 Ry
Split based on tail norm

   izeta = 1
                 lambda =    1.000000
                     rc =    5.714927
                 energy =   -0.682223
                kinetic =    0.604116
    potential(screened) =   -1.286339
       potential(ionic) =   -3.302390

   izeta = 2
                 rmatch =    3.823698
              splitnorm =    0.150000
                 energy =   -0.502064
                kinetic =    1.116406
    potential(screened) =   -1.618470
       potential(ionic) =   -3.792969

[...]

SPLIT: Basis orbitals for state 2p

[...]

   izeta = 2
                 rmatch =    4.748011
              splitnorm =    0.150000
                 energy =   -0.176810
                kinetic =    2.206388
    potential(screened) =   -2.383198
       potential(ionic) =   -4.488680
*Note: V_local used for l= 2

** Using vlocal for PAOs with L= 2

POLgen: Perturbative polarization orbital with L=  2

POLgen: Polarization orbital for state 2p
*Note: V_local used for lpol= 2

** Using vlocal for PAOs with L= 2
Split based on tail norm

   izeta = 1
                     rc =    7.066857
                 energy =    0.676401
                kinetic =    1.417761
    potential(screened) =   -0.741360
       potential(ionic) =   -2.355753
atom: Total number of Sankey-type orbitals: 13

atm_pop: Valence configuration (for local Pseudopot. screening):
 2s( 2.00)
 2p( 1.00)
 3d( 0.00)
Vna: chval, zval:    3.00000   3.00000

Vna:  Cut-off radius for the neutral-atom potential:   7.066857
comcore: Pseudo-core radius Rcore=  1.975419

atom: _________________________________________________________________________

[...]

<basis_specs>
N                    Z=   7    Mass=  14.007        Charge= 0.17977+309
Lmxo=2 Lmxkb= 1    BasisType=split      Semic=F
L=0  Nsemic=0  Cnfigmx=2
          i=1  nzeta=2  polorb=0  (2s)
            splnorm:   0.15000
               vcte:    40.000
               rinn:  -0.90000
               qcoe:    0.0000
               qyuk:    0.0000
               qwid:   0.10000E-01
                rcs:    0.0000      0.0000
            lambdas:    1.0000      1.0000
L=1  Nsemic=0  Cnfigmx=2
          i=1  nzeta=2  polorb=1  (2p)  (to be polarized perturbatively)
            splnorm:   0.15000
               vcte:    40.000
               rinn:  -0.90000
               qcoe:    0.0000
               qyuk:    0.0000
               qwid:   0.10000E-01
                rcs:    0.0000      0.0000
            lambdas:    1.0000      1.0000
L=2  Nsemic=0  Cnfigmx=3
          i=1  nzeta=0  polorb=0  (3d)  (perturbative polarization orbital) (from 2p)
L=0  Nkbl=1  erefs: 0.17977+309
L=1  Nkbl=1  erefs: 0.17977+309
</basis_specs>

Using PAO.SplitTailNorm
atom: Called for N                     (Z =   7)
NOTE: N pseudopotential has channels up to l= 1
NOTE: PAOs with higher l will be generated with V_local
Maximum radius (at nrval) set to   50.00000 8518

read_vps: Pseudopotential generation method:
read_vps: ONCVPSP-3.Hamann's oncvpsp
Valence charge in pseudo generation:    5.00000

read_vps: Pseudopotential includes a core correction:
read_vps: Pseudo-core for xc-correction

xc_check: Exchange-correlation functional:
xc_check: GGA PBEsol
Got Vlocal (oncv-fit) from psml data
Choosing vlocal chloc cutoff:  6.038618
qtot up to nchloc:    4.99997633
atom: Maximum radius for chlocal:    6.03862
atom: Maximum radius for r*vlocal+2*Zval:    6.03862
Reading KB projs from N psml data
Using scalar-relativistic projectors in PSML file

PSML: Kleinman-Bylander projectors:
   l= 0   rc=  1.214864   Ekb= 14.928379
   l= 0   rc=  1.221004   Ekb=  1.251736
   l= 1   rc=  1.375180   Ekb= -8.619428
   l= 1   rc=  1.375180   Ekb= -2.025883

PSML: Total number of  Kleinman-Bylander projectors:   8
atom: -------------------------------------------------------------------------

atom: SANKEY-TYPE ORBITALS:
atom: Selected multiple-zeta basis: split

[...]

SPLIT: Basis orbitals for state 2s

[...]

   izeta = 2
                 rmatch =    2.696970
              splitnorm =    0.150000
                 energy =   -1.041987
                kinetic =    2.172223
    potential(screened) =   -3.214210
       potential(ionic) =   -9.191634

SPLIT: Orbitals with angular momentum L= 1

SPLIT: Basis orbitals for state 2p

SPLIT: PAO cut-off radius determined from an
SPLIT: energy shift=  0.005000 Ry
Split based on tail norm

   izeta = 1
[...]
redata: Harris energy tolerance for SCF             =     0.000100 eV
redata: Require DM convergence for SCF              =   T
redata: DM tolerance for SCF                        =     0.000010
redata: Require EDM convergence for SCF             =   F
redata: EDM tolerance for SCF                       =     0.001000 eV
redata: Require H convergence for SCF               =   T
redata: Hamiltonian tolerance for SCF               =     0.001000 eV
redata: Require (free) Energy convergence for SCF   =   F
redata: (free) Energy tolerance for SCF             =     0.000100 eV
redata: Using DFT-D3 dispersion                     =   F
redata: Using Saved Data (generic)                  =   F
redata: Use continuation files for DM               =   T
redata: Neglect nonoverlap interactions             =   F
redata: Method of Calculation                       = Diagonalization
redata: Electronic Temperature                      =    50.0000 K
redata: Fix the spin of the system                  =   F
redata: Max. number of TDED Iter                    =        1
redata: Number of TDED substeps                     =        3
redata: Dynamics option                             = Single-point calculation
mix.SCF: Pulay mixing                            = Pulay
mix.SCF:    Variant                              = stable
mix.SCF:    History steps                        = 10
mix.SCF:    Linear mixing weight                 =     0.025000
mix.SCF:    Mixing weight                        =     0.025000
mix.SCF:    SVD condition                        = 0.1000E-07
redata: ***********************************************************************

%block SCF.Mixers
  Pulay
%endblock SCF.Mixers

%block SCF.Mixer.Pulay
  # Mixing method
  method pulay
  variant stable

  # Mixing options
  weight 0.0250
  weight.linear 0.0250
  history 10
%endblock SCF.Mixer.Pulay

DM_history_depth set to one: no extrapolation allowed by default for geometry relaxation
Size of DM history Fstack: 1
Total number of electrons:    12.000000
Total ionic charge:    12.000000

* ProcessorY, Blocksize:    6   1

* Orbital distribution balance (max,min):     2     1

k-point displ. along   1 input, could be:     0.00    0.50
k-point displ. along   2 input, could be:     0.00    0.50
k-point displ. along   3 input, could be:     0.00    0.50
 Kpoints in:          320 . Kpoints trimmed:          296

siesta: k-grid: Number of k-points = 296
siesta: k-points from Monkhorst-Pack grid
siesta: k-cutoff (effective) =    14.400 Ang
siesta: k-point supercell and displacements
siesta: k-grid:     8     0     0      0.000
siesta: k-grid:     0     8     0      0.000
siesta: k-grid:     0     0     8      0.000

diag: Algorithm                                     = D&C
diag: Parallel over k                               =   F
diag: Use parallel 2D distribution                  =   T
diag: Parallel block-size                           = 1
diag: Parallel distribution                         =     4 x     6
diag: Used triangular part                          = Lower
diag: Absolute tolerance                            =  0.100E-15
diag: Orthogonalization factor                      =  0.100E-05

superc: Internal auxiliary supercell:     5 x     5 x     5  =     125
superc: Number of atoms, orbitals, and projectors:    375   4875   3000

ts: **************************************************************
ts: Save H and S matrices                           =    F
ts: Save DM and EDM matrices                        =    F
ts: Only save the overlap matrix S                  =    F
ts: **************************************************************

************************ Begin: TS CHECKS AND WARNINGS ************************
************************ End: TS CHECKS AND WARNINGS **************************

                        Single-point calculation

superc: Internal auxiliary supercell:     5 x     5 x     5  =     125
superc: Number of atoms, orbitals, and projectors:    375   4875   3000

outcell: Unit cell vectors (Ang):
        3.599990    0.000000    0.000000
        0.000000    3.599990    0.000000
        0.000000    0.000000    3.599990

outcell: Cell vector modules (Ang)   :    3.599990    3.599990    3.599990
outcell: Cell angles (23,13,12) (deg):     90.0000     90.0000     90.0000
outcell: Cell volume (Ang**3)        :     46.6556
<dSpData1D:S at geom step 0
  <sparsity:sparsity for geom step 0
    nrows_g=39 nrows=2 sparsity=1.1966 nnzs=1820, refcount: 7>
  <dData1D:(new from dSpData1D) n=1820, refcount: 1>
refcount: 1>
new_DM -- step:     1
Initializing Density Matrix...

Attempting to read DM from file... Failed...
DM filled with atomic data:
<dSpData2D:DM initialized from atoms
  <sparsity:sparsity for geom step 0
    nrows_g=39 nrows=2 sparsity=1.1966 nnzs=1820, refcount: 8>
  <dData2D:DM n=1820 m=1, refcount: 1>
refcount: 1>
No. of atoms with KB's overlaping orbs in proc 0. Max # of overlaps:      28     162

InitMesh: MESH = 48 x 48 x 48 = 110592
InitMesh: Mesh cutoff (required, used) =   400.000   491.340 Ry
New grid distribution [1]: sub = 2
New grid distribution [2]: sub = 2
New grid distribution [3]: sub = 2
Setting up quadratic distribution...

stepf: Fermi-Dirac step function

siesta: Program's energy decomposition (eV):
siesta: Ebs     =      -135.633481
siesta: Eions   =       892.933826
siesta: Ena     =       235.624721
siesta: Ekin    =       376.334325
siesta: Enl     =       -26.486275
siesta: Eso     =         0.000000
siesta: Edftu   =         0.000000
siesta: DEna    =       -33.901055
siesta: DUscf   =         8.955859
siesta: DUext   =         0.000000
siesta: Ex      =      -158.883664
siesta: Ec      =       -15.057174
siesta: Exc     =      -173.940838
siesta: EbV     =         0.000000
siesta: eta*DQ  =         0.000000
siesta: Emadel  =         0.000000
siesta: Emeta   =         0.000000
siesta: Emolmec =         0.000000
siesta: Ekinion =         0.000000
siesta: Eharris =      -496.805281
siesta: Etot    =      -506.347088
siesta: FreeEng =      -506.347088

        iscf     Eharris(eV)        E_KS(eV)     FreeEng(eV)     dDmax    Ef(eV) dHmax(eV)
   scf:    1     -496.805281     -506.347088     -506.347088  1.049936 -6.233390 10.196971
 IterSCF                          1       1.821  100.00
  compute_dm                      1       1.782   97.88
  setup_H                         1       0.038    2.06
  MIXER                           1       0.000    0.00
   scf:    2     -507.339597     -506.849356     -506.849356  0.019906 -6.359669  9.555469
   scf:    3     -508.757734     -509.790922     -509.790965  0.276278 -6.163662  2.849921
   scf:    4     -502.087592     -506.574656     -506.574783  0.167568 -6.019654  6.566040
   scf:    5     -497.827833     -507.277239     -507.277239  0.324469 -5.928570  6.499142
   scf:    6     -511.505531     -509.745471     -509.745471  0.106549 -5.982961  2.676972
   scf:    7     -510.362826     -510.115884     -510.115884  0.050017 -5.934655  1.816823
   scf:    8     -510.396536     -510.321926     -510.321938  0.052274 -5.968664  0.842804
   scf:    9     -510.372986     -510.351088     -510.351142  0.011202 -5.965809  0.466266
   scf:   10     -510.366243     -510.361889     -510.361915  0.015880 -5.966470  0.095585
   scf:   11     -510.359839     -510.361366     -510.361389  0.006209 -5.954353  0.093888
   scf:   12     -510.362753     -510.362180     -510.362201  0.001865 -5.964499  0.052374
   scf:   13     -510.362535     -510.362420     -510.362438  0.001532 -5.966905  0.012377
   scf:   14     -510.362343     -510.362401     -510.362423  0.000837 -5.969839  0.026241
   scf:   15     -510.362444     -510.362433     -510.362451  0.000741 -5.971093  0.003751
   scf:   16     -510.362434     -510.362433     -510.362452  0.000043 -5.970868  0.002079
   scf:   17     -510.362434     -510.362434     -510.362452  0.000088 -5.970991  0.000158
   scf:   18     -510.362434     -510.362434     -510.362452  0.000009 -5.970974  0.000278

SCF Convergence by DM+H criterion
max |DM_out - DM_in|         :     0.0000089935
max |H_out - H_in|      (eV) :     0.0002783993
SCF cycle converged after 18 iterations

Using DM_out to compute the final energy and forces
No. of atoms with KB's overlaping orbs in proc 0. Max # of overlaps:      28     162

siesta: E_KS(eV) =             -510.3624

siesta: E_KS - E_eggbox =      -510.3624

siesta: Atomic forces (eV/Ang):
   Tot    0.000121    0.000106    0.000667
   Max   41.754088
   Res   23.521394    sqrt( Sum f_i^2 / 3N )
   Max   41.754088    constrained

Stress tensor Voigt[x,y,z,yz,xz,xy] (kbar):     -202.88     -200.79    -1214.88     -570.22      559.89      295.05
(Free)E + p*V (eV/cell)     -494.6517
Target enthalpy (eV/cell)     -510.3625

siesta: Program's energy decomposition (eV):
siesta: Ebs     =      -167.029878
siesta: Eions   =       892.933826
siesta: Ena     =       235.624721
siesta: Ekin    =       351.680038
siesta: Enl     =       -21.849042
siesta: Eso     =         0.000000
siesta: Edftu   =         0.000000
siesta: DEna    =       -16.682273
siesta: DUscf   =         2.309900
siesta: DUext   =         0.000000
siesta: Ex      =      -153.479024
siesta: Ec      =       -15.032926
siesta: Exc     =      -168.511950
siesta: EbV     =         0.000000
siesta: eta*DQ  =         0.000000
siesta: Emadel  =         0.000000
siesta: Emeta   =         0.000000
siesta: Emolmec =         0.000000
siesta: Ekinion =         0.000000
siesta: Eharris =      -510.362434
siesta: Etot    =      -510.362434
siesta: FreeEng =      -510.362452

siesta: Final energy (eV):
siesta:  Band Struct. =    -167.029878
siesta:       Kinetic =     351.680038
siesta:       Hartree =     205.452001
siesta:         Edftu =       0.000000
siesta:       Eso     =       0.000000
siesta:    Ext. field =       0.000000
siesta:         Exch. =    -153.479024
siesta:         Corr. =     -15.032926
siesta:     Bulk bias =       0.000000
siesta:   Exch.-corr. =    -168.511950
siesta:  Ion-electron =    -741.181122
siesta:       Ion-ion =    -157.801400
siesta:       Ekinion =       0.000000
siesta: D3 dispersion =       0.000000
siesta:         Total =    -510.362434
siesta:         Fermi =      -5.970974

siesta: Atomic forces (eV/Ang):
siesta:      1   19.667287  -19.504685  -41.754088
siesta:      2   -1.774007   -0.676884    0.070347
siesta:      3  -17.893159   20.181675   41.684408
siesta: ----------------------------------------
siesta:    Tot    0.000121    0.000106    0.000667

siesta: Stress tensor (static) (eV/Ang**3):
siesta:    -0.126630    0.184158    0.349453
siesta:     0.184158   -0.125323   -0.355903
siesta:     0.349454   -0.355901   -0.758266

siesta: Cell volume =         46.655611 Ang**3

siesta: Pressure (static):
siesta:                Solid            Molecule  Units
siesta:           0.00366756         -0.00058762  Ry/Bohr**3
siesta:           0.33673958         -0.05395289  eV/Ang**3
siesta:         539.51628759        -86.44205261  kBar
(Free)E+ p_basis*V_orbitals  =        -508.725471
(Free)Eharris+ p_basis*V_orbitals  =        -508.725471

cite: Please see "aiida.bib" for an exhaustive BiBTeX file.
cite: Please clearly indicate Siesta version in published work: NO_VERSION_LABEL_AVAILABLE
cite: This calculation has made use of the following articles
cite: which are encouraged to be cited in a published work.
        Primary SIESTA paper
          DOI: www.doi.org/10.1088/0953-8984/14/11/302

 global_section                   1      34.889  100.00
  siesta                          1      34.889  100.00
   Setup                          1       0.213    0.61
    bands                         1       0.000    0.00
    KSV_init                      1       0.000    0.00
   IterGeom                       1      34.658   99.34
    geom_init                     1       1.333    3.82
     state_init                   1       0.059    0.17
      hsparse                     1       0.001    0.00
      overlap                     1       0.032    0.09
     Setup_H0                     1       1.218    3.49
      naefs                       1       0.001    0.00
      MolMec                      1       0.000    0.00
      kinefsm                     1       0.026    0.07
      nlefsm                      1       0.767    2.20
      DHSCF_Init                  1       0.424    1.22
       DHSCF1                     1       0.044    0.13
        INITMESH                  1       0.000    0.00
       DHSCF2                     1       0.380    1.09
        REMESH                    1       0.156    0.45
         INITMESH                 2       0.087    0.25
          SPLOAD                  2       0.087    0.25
        REORD                     2       0.000    0.00
        PHION                     1       0.170    0.49
        COMM_BSC                  1       0.000    0.00
        POISON                    1       0.001    0.00
         fft                      2       0.001    0.00
     setup_H                      1       0.055    0.16
      DHSCF                       1       0.055    0.16
       DHSCF3                     1       0.055    0.16
        rhoofd                    1       0.022    0.06
        COMM_BSC                  2       0.008    0.02
        POISON                    1       0.001    0.00
         fft                      2       0.001    0.00
        XC                        1       0.006    0.02
         COMM_BSC                 2       0.000    0.00
         GXC-CellXC               1       0.006    0.02
          gridxc@cellXC           1       0.006    0.02
        vmat                      1       0.018    0.05
    IterSCF                      18      33.132   94.97
     compute_dm                  18      32.354   92.73
      diagon                     18      32.353   92.73
       c-eigval                5328      15.736   45.10
        c-buildHS              5328       0.140    0.40
        cdiag                  5328      15.592   44.69
         cdiag1                5328       1.445    4.14
         cdiag2                5328       3.281    9.41
         cdiag3                5328      10.568   30.29
       c-eigvec                5328      16.334   46.82
        cdiag                  5328      16.193   46.41
         cdiag1                5328       1.447    4.15
         cdiag2                5328       3.292    9.44
         cdiag3                5328      10.614   30.42
         cdiag4                5328       0.532    1.53
       c-buildD                5328       0.256    0.73
     setup_H                     18       0.763    2.19
      DHSCF                      18       0.763    2.19
       DHSCF3                    18       0.763    2.19
        rhoofd                   18       0.351    1.01
        COMM_BSC                 36       0.052    0.15
        POISON                   18       0.012    0.03
         fft                     36       0.011    0.03
        XC                       18       0.104    0.30
         COMM_BSC                36       0.002    0.01
         GXC-CellXC              18       0.102    0.29
          gridxc@cellXC          18       0.102    0.29
        vmat                     18       0.243    0.70
     MIXER                       17       0.002    0.00
    PostSCF                       1       0.192    0.55
     naefs                        1       0.000    0.00
     kinefsm                      1       0.001    0.00
     nlefsm                       1       0.009    0.03
     DHSCF                        1       0.146    0.42
      DHSCF3                      1       0.056    0.16
       rhoofd                     1       0.019    0.05
       COMM_BSC                   2       0.012    0.03
       POISON                     1       0.001    0.00
        fft                       2       0.001    0.00
       XC                         1       0.007    0.02
        COMM_BSC                  2       0.000    0.00
        GXC-CellXC                1       0.007    0.02
         gridxc@cellXC            1       0.007    0.02
       vmat                       1       0.017    0.05
      DHSCF4                      1       0.090    0.26
       REORD                     10       0.000    0.00
       COMM_BSC                   2       0.008    0.02
       dfscf                      1       0.056    0.16
     overfsm                      1       0.001    0.00
     MolMec                       1       0.000    0.00
     writeHSX                     1       0.001    0.00
    state_analysis                1       0.000    0.00
    siesta_move                   1       0.000    0.00
   Analysis                       1       0.017    0.05
    optical                       1       0.000    0.00

>> End of run:  13-APR-2024  13:46:12
Job completed