Runtime information:
* Directory : /home/ICN2/jgarridoa/aiida_run/af/0c/47db-c8b0-4b70-91b5-22e459460f3b
>> Start of run:  19-APR-2024  16:40:40

reinit: Reading from standard input
reinit: Dumping input in INPUT_TMP.74588
************************** Dump of input data file ****************************
atomiccoordinatesformat Ang
cdfsave True
dminitspinaf False
dmmixingweight 0.025
dmmixscf1 True
dmnumberpulay 10
dmtolerance 1e-05
electronictemperature 50.000 K
geometrymustconverge T
latticeconstant 1.0 Ang
maxscfiterations 1000
meshcutoff 400 Ry
noncollinearspin False
numberofatoms 64
numberofspecies 2
savehs True
solutionmethod diagon
spinorbit False
spinpolarized False
systemlabel aiida
systemname aiida
usetreetimer T
writedmhsnetcdf True
writeorbmom True
xcauthors PBEsol
xcfunctional GGA
xmlwrite T
#
# -- Basis Set Info follows
#
PAO-BasisSize DZP
PAO-SplitNorm 0.15
PAO-EnergyShift 0.005 Ry
#
# -- Structural Info follows
#
%block chemicalspecieslabel
    1     5      B
    2     6      C
%endblock chemicalspecieslabel
%block lattice-vectors
      6.6497300000       0.0000000000       0.0000000000
      0.0000000000       6.6497300000       0.0000000000
      0.0000000000       0.0000000000       6.6497300000
%endblock lattice-vectors
%block atomiccoordinatesandatomicspecies
      4.1792888077       0.9391413679       3.5187711268    1      B      1
      3.3847125700       2.0388072180       2.5897373485    1      B      2
      0.3372078083       1.8777507574       6.4450513106    1      B      3
      1.2157701359       1.7799997264       2.2870416389    1      B      4
      2.1053710153       0.6216832577       2.7301796461    1      B      5
      1.9715784477       2.9863272457       1.9514297658    1      B      6
      4.5537351040       0.7513529927       2.0575594566    1      B      7
      2.7666866638       1.9323450407       1.0139508304    1      B      8
      5.3441220118       1.7714880720       1.7289962973    1      B      9
      1.2208239307       2.1557759687       0.8451141857    1      B     10
      2.9044690694       0.5844447697       4.0596601650    1      B     11
      2.5999114354       3.2429403264       3.3977460408    1      B     12
      0.8624034837       1.4890075416       4.3481919497    1      B     13
      0.2532882157       2.4242920661       5.1402412900    1      B     14
      4.0899164365       3.2455337211       6.1936915166    1      B     15
      5.6847211824       0.8548227915       3.6981143449    1      B     16
      5.6541324244       2.9548075255       5.5204728514    1      B     17
      3.7324269517       1.7046582855       6.3685794156    1      B     18
      3.3805232401       3.3138929455       4.6799469794    1      B     19
      4.7814218592       0.6051919273       5.3497742823    1      B     20
      1.1335129758       3.0584768162       4.0836656903    1      B     21
      1.8065986464       1.3193729293       5.6891100042    1      B     22
      5.9667362317       4.4017887735       1.4783679736    1      B     23
      2.5536293146       5.7715001589       0.3492438196    1      B     24
      1.7226125565       4.2507069079       2.6240499553    1      B     25
      4.5686969965       4.1399889034       3.3206091728    1      B     26
      1.0316391122       3.8206688688       1.0837729954    1      B     27
      0.2252928524       3.2731965979       2.5188512267    1      B     28
      5.5688163885       5.8242325178       1.2969633392    1      B     29
      4.0436343157       0.3791011073       0.6224812253    1      B     30
      0.9705945908       6.3050744941       1.4781019844    1      B     31
      2.5525653578       5.0601785408       1.9148562508    1      B     32
      6.4140635688       3.6385327641       0.2351344528    1      B     33
      3.7116797941       5.3091444320       1.1056506071    1      B     34
      4.5633107152       5.6308583694       0.1103190207    1      B     35
      1.9824175076       6.2249452476       4.2715205628    1      B     36
      6.4468467377       5.2977733937       5.8109995551    1      B     37
      5.9687311507       6.4624071059       6.6259239666    1      B     38
      1.9284881973       3.3904978351       6.4556243813    1      B     39
      0.1673072068       0.1565346442       5.1056626940    1      B     40
      6.4577522949       3.8230627716       3.7283041191    1      B     41
      0.6738171409       4.5329214491       4.4644957274    1      B     42
      6.4806273661       5.6142340444       3.9077803318    1      B     43
      1.1410936680       5.2221659636       0.0597810727    1      B     44
      3.3773978670       5.5179459540       4.0706987168    1      B     45
      1.8135808629       6.4483761756       6.0233254340    1      B     46
      0.3428600788       0.9926716944       3.1162629699    2      C     47
      4.6383861669       3.1850876754       0.9142713777    2      C     48
      4.7507001066       2.7281182298       2.7896282323    2      C     49
      5.4279751071       1.4262340904       0.1899827861    2      C     50
      6.3084658564       2.6520453186       1.4022950624    2      C     51
      0.1996248946       0.8768333978       1.4325513339    2      C     52
      3.0217038093       1.9681205881       4.8481851484    2      C     53
      2.1213968646       1.8107214790       3.6072790331    2      C     54
      5.5838447783       5.1727584697       2.7817815509    2      C     55
      4.3397467926       6.0400827536       2.2667599624    2      C     56
      2.5477775522       6.4902694746       1.7187557131    2      C     57
      2.5981160083       4.2399343453       0.6779399735    2      C     58
      0.6650394973       5.2532867000       2.5957221055    2      C     59
      1.1170881427       3.9942268218       5.5948168328    2      C     60
      1.4620761351       5.3876777433       5.1391773332    2      C     61
      4.7622706368       5.5192759000       5.4397451292    2      C     62
      3.1468517279       0.2049446786       5.5351687547    2      C     63
      4.0999575288       4.3858294215       5.0988799694    2      C     64
%endblock atomiccoordinatesandatomicspecies
#
# -- K-points Info follows
#
%block kgrid_monkhorst_pack
    12      0      0       0.0000000000
     0     12      0       0.0000000000
     0      0     12       0.0000000000
%endblock kgrid_monkhorst_pack
#
#
maxwalltime 7200000
************************** End of input data file *****************************

reinit: -----------------------------------------------------------------------
reinit: System Name: aiida
reinit: -----------------------------------------------------------------------
reinit: System Label: aiida
reinit: -----------------------------------------------------------------------

initatom: Reading input for the pseudopotentials and atomic orbitals ----------
Species number:   1 Atomic number:    5 Label: B
Species number:   2 Atomic number:    6 Label: C

---- Processing specs for species: B
Ground state valence configuration:   2s02  2p01
Reading pseudopotential information in PSML from:
  B.psml
PSML file version: 1.1
GGA--PBEsol XC_GGA_X_PBE_SOL--XC_GGA_C_PBE_SOL ps
PSML uuid: 4c4355a0-1d5f-11e8-6182-f22cff9f01b0

---- Processing specs for species: C
Ground state valence configuration:   2s02  2p02
Reading pseudopotential information in PSML from:
  C.psml
PSML file version: 1.1
GGA--PBEsol XC_GGA_X_PBE_SOL--XC_GGA_C_PBE_SOL ps
PSML uuid: 51a02af0-1d5f-11e8-49c3-12b9ebd99919

---- Pseudopotential check for B

Pseudized shells:
2s( 2.00) rc: 1.21
2p( 1.00) rc: 1.21
Valence configuration for ps generation: 2s:2p: Total charge:   3.000000

---- Pseudopotential check for C

Pseudized shells:
2s( 2.00) rc: 1.20
2p( 2.00) rc: 1.26
Valence configuration for ps generation: 2s:2p: Total charge:   4.000000
For B, standard SIESTA heuristics set lmxkb to 3
 (one more than the basis l, including polarization orbitals).
Use PS.lmax or PS.KBprojectors blocks to override.
For C, standard SIESTA heuristics set lmxkb to 3
 (one more than the basis l, including polarization orbitals).
Use PS.lmax or PS.KBprojectors blocks to override.
B pseudopotential only contains V_ls up to l=1 -- lmxkb reset.
C pseudopotential only contains V_ls up to l=1 -- lmxkb reset.

<basis_specs>
B                    Z=   5    Mass=  10.810        Charge= 0.17977+309
Lmxo=2 Lmxkb= 1    BasisType=split      Semic=F
L=0  Nsemic=0  Cnfigmx=2
          i=1  nzeta=2  polorb=0  (2s)
            splnorm:   0.15000
               vcte:    40.000
               rinn:  -0.90000
               qcoe:    0.0000
               qyuk:    0.0000
               qwid:   0.10000E-01
                rcs:    0.0000      0.0000
            lambdas:    1.0000      1.0000
L=1  Nsemic=0  Cnfigmx=2
          i=1  nzeta=2  polorb=1  (2p)  (to be polarized perturbatively)
            splnorm:   0.15000
               vcte:    40.000
               rinn:  -0.90000
               qcoe:    0.0000
               qyuk:    0.0000
               qwid:   0.10000E-01
                rcs:    0.0000      0.0000
            lambdas:    1.0000      1.0000
L=2  Nsemic=0  Cnfigmx=3
          i=1  nzeta=0  polorb=0  (3d)  (perturbative polarization orbital) (from 2p)
L=0  Nkbl=1  erefs: 0.17977+309
L=1  Nkbl=1  erefs: 0.17977+309
</basis_specs>

Using PAO.SplitTailNorm
atom: Called for B                     (Z =   5)
NOTE: B pseudopotential has channels up to l= 1
NOTE: PAOs with higher l will be generated with V_local
Maximum radius (at nrval) set to   50.00000 8518

read_vps: Pseudopotential generation method:
read_vps: ONCVPSP-3.Hamann's oncvpsp
Valence charge in pseudo generation:    3.00000

read_vps: Pseudopotential includes a core correction:
read_vps: Pseudo-core for xc-correction

xc_check: Exchange-correlation functional:
xc_check: GGA PBEsol
Got Vlocal (oncv-fit) from psml data
Choosing vlocal chloc cutoff:  3.201794
qtot up to nchloc:    3.00023194
atom: Maximum radius for chlocal:    3.20179
atom: Maximum radius for r*vlocal+2*Zval:    3.20179
Reading KB projs from B psml data
Using scalar-relativistic projectors in PSML file

PSML: Kleinman-Bylander projectors:
   l= 0   rc=  1.223468   Ekb= 16.933205
   l= 0   rc=  1.223468   Ekb=  2.495260
   l= 1   rc=  1.223468   Ekb= -7.218359
   l= 1   rc=  1.223468   Ekb= -1.645242

PSML: Total number of  Kleinman-Bylander projectors:   8
atom: -------------------------------------------------------------------------

atom: SANKEY-TYPE ORBITALS:
atom: Selected multiple-zeta basis: split

SPLIT: Orbitals with angular momentum L= 0

SPLIT: Basis orbitals for state 2s

SPLIT: PAO cut-off radius determined from an
SPLIT: energy shift=  0.005000 Ry
Split based on tail norm

   izeta = 1
                 lambda =    1.000000
                     rc =    5.714927
                 energy =   -0.682223
                kinetic =    0.604116
    potential(screened) =   -1.286339
       potential(ionic) =   -3.302390

   izeta = 2
                 rmatch =    3.823698
              splitnorm =    0.150000
                 energy =   -0.502064
                kinetic =    1.116406
    potential(screened) =   -1.618470
[...]

superc: Internal auxiliary supercell:     5 x     5 x     5  =     125
superc: Number of atoms, orbitals, and projectors:   8000 104000  64000

outcell: Unit cell vectors (Ang):
        6.649730    0.000000    0.000000
        0.000000    6.649730    0.000000
        0.000000    0.000000    6.649730

outcell: Cell vector modules (Ang)   :    6.649730    6.649730    6.649730
outcell: Cell angles (23,13,12) (deg):     90.0000     90.0000     90.0000
outcell: Cell volume (Ang**3)        :    294.0438
<dSpData1D:S at geom step 0
  <sparsity:sparsity for geom step 0
    nrows_g=832 nrows=35 sparsity=.2094 nnzs=144922, refcount: 7>
  <dData1D:(new from dSpData1D) n=144922, refcount: 1>
refcount: 1>
new_DM -- step:     1
Initializing Density Matrix...

Attempting to read DM from file... Failed...
DM filled with atomic data:
<dSpData2D:DM initialized from atoms
  <sparsity:sparsity for geom step 0
    nrows_g=832 nrows=35 sparsity=.2094 nnzs=144922, refcount: 8>
  <dData2D:DM n=144922 m=1, refcount: 1>
refcount: 1>
No. of atoms with KB's overlaping orbs in proc 0. Max # of overlaps:     150     752

InitMesh: MESH = 80 x 80 x 80 = 512000
InitMesh: Mesh cutoff (required, used) =   400.000   400.013 Ry
New grid distribution [1]: sub = 2
New grid distribution [2]: sub = 2
New grid distribution [3]: sub = 2
Setting up quadratic distribution...

stepf: Fermi-Dirac step function

siesta: Program's energy decomposition (eV):
siesta: Ebs     =     -3499.998048
siesta: Eions   =     12500.230831
siesta: Ena     =      3824.388013
siesta: Ekin    =      5429.767638
siesta: Enl     =       -36.920098
siesta: Eso     =         0.000000
siesta: Edftu   =         0.000000
siesta: DEna    =      -372.844113
siesta: DUscf   =        92.379017
siesta: DUext   =         0.000000
siesta: Ex      =     -2495.575544
siesta: Ec      =      -317.290692
siesta: Exc     =     -2812.866236
siesta: EbV     =         0.000000
siesta: eta*DQ  =         0.000000
siesta: Emadel  =         0.000000
siesta: Emeta   =         0.000000
siesta: Emolmec =         0.000000
siesta: Ekinion =         0.000000
siesta: Eharris =     -5565.826625
siesta: Etot    =     -6376.326611
siesta: FreeEng =     -6376.327253

        iscf     Eharris(eV)        E_KS(eV)     FreeEng(eV)     dDmax    Ef(eV) dHmax(eV)
   scf:    1    -5565.826625    -6376.326611    -6376.327253  4.258299 -8.377241 12.998632
 IterSCF                          1     386.294  100.00
  compute_dm                      1     383.613   99.31
  setup_H                         1       2.639    0.68
  MIXER                           1       0.001    0.00
   scf:    2    -6398.919929    -6388.094551    -6388.095192  0.078400 -8.353780 10.809025
   scf:    3    -6425.338341    -6415.089493    -6415.090164  0.327316 -8.279409  5.598817
   scf:    4    -6424.545917    -6420.716373    -6420.717018  0.279316 -8.204180  2.073567
   scf:    5    -6423.494057    -6422.377251    -6422.377825  0.137479 -8.164577  1.244420
   scf:    6    -6425.009940    -6423.936045    -6423.936687  0.272407 -8.062958  0.742597
   scf:    7    -6423.959657    -6423.948118    -6423.948763  0.003336 -8.061764  0.702169
   scf:    8    -6424.483710    -6424.262868    -6424.263527  0.132125 -8.002794  0.371888
   scf:    9    -6424.412130    -6424.345665    -6424.346342  0.058558 -7.970978  0.169362
   scf:   10    -6424.371015    -6424.361119    -6424.361800  0.019250 -7.960012  0.146987
   scf:   11    -6424.379030    -6424.370943    -6424.371626  0.015858 -7.952014  0.061115
   scf:   12    -6424.378661    -6424.375349    -6424.376032  0.012840 -7.945936  0.040927
   scf:   13    -6424.376664    -6424.376066    -6424.376749  0.004791 -7.943642  0.040694
   scf:   14    -6424.377509    -6424.376888    -6424.377572  0.004949 -7.941456  0.013821
   scf:   15    -6424.377061    -6424.376980    -6424.377663  0.001104 -7.941034  0.008748
   scf:   16    -6424.377141    -6424.377064    -6424.377748  0.001456 -7.940563  0.004451
   scf:   17    -6424.377112    -6424.377089    -6424.377772  0.000790 -7.940296  0.003773
   scf:   18    -6424.377120    -6424.377105    -6424.377788  0.000248 -7.940286  0.003442
   scf:   19    -6424.377127    -6424.377117    -6424.377800  0.000246 -7.940432  0.003236
   scf:   20    -6424.377134    -6424.377126    -6424.377808  0.000317 -7.940335  0.002362
   scf:   21    -6424.377142    -6424.377134    -6424.377817  0.000686 -7.940043  0.001778
   scf:   22    -6424.377138    -6424.377136    -6424.377819  0.000110 -7.940030  0.001794
   scf:   23    -6424.377143    -6424.377140    -6424.377822  0.000152 -7.940099  0.000888
   scf:   24    -6424.377140    -6424.377140    -6424.377823  0.000043 -7.940089  0.000756
   scf:   25    -6424.377143    -6424.377142    -6424.377824  0.000282 -7.940051  0.000290
   scf:   26    -6424.377142    -6424.377142    -6424.377824  0.000005 -7.940055  0.000280

SCF Convergence by DM+H criterion
max |DM_out - DM_in|         :     0.0000054387
max |H_out - H_in|      (eV) :     0.0002803700
SCF cycle converged after 26 iterations

Using DM_out to compute the final energy and forces
No. of atoms with KB's overlaping orbs in proc 0. Max # of overlaps:     150     752

siesta: E_KS(eV) =            -6424.3771

siesta: E_KS - E_eggbox =     -6424.3771

siesta: Atomic forces (eV/Ang):
   Tot    0.003569   -0.003169    0.005651
   Max   12.088919
   Res    3.044780    sqrt( Sum f_i^2 / 3N )
   Max   12.088919    constrained

Stress tensor Voigt[x,y,z,yz,xz,xy] (kbar):    -2113.45    -2174.97    -2265.68       41.93      -93.87     -137.90
(Free)E + p*V (eV/cell)    -6023.4247
Target enthalpy (eV/cell)    -6424.3778

siesta: Program's energy decomposition (eV):
siesta: Ebs     =     -3760.460917
siesta: Eions   =     12500.230831
siesta: Ena     =      3824.388013
siesta: Ekin    =      5284.411253
siesta: Enl     =       -16.433915
siesta: Eso     =         0.000000
siesta: Edftu   =         0.000000
siesta: DEna    =      -250.511254
siesta: DUscf   =        22.485240
siesta: DUext   =         0.000000
siesta: Ex      =     -2469.745225
siesta: Ec      =      -318.740422
siesta: Exc     =     -2788.485648
siesta: EbV     =         0.000000
siesta: eta*DQ  =         0.000000
siesta: Emadel  =         0.000000
siesta: Emeta   =         0.000000
siesta: Emolmec =         0.000000
siesta: Ekinion =         0.000000
siesta: Eharris =     -6424.377142
siesta: Etot    =     -6424.377142
siesta: FreeEng =     -6424.377824

siesta: Final energy (eV):
siesta:  Band Struct. =   -3760.460917
siesta:       Kinetic =    5284.411253
siesta:       Hartree =     648.288596
siesta:         Edftu =       0.000000
siesta:       Eso     =       0.000000
siesta:    Ext. field =       0.000000
siesta:         Exch. =   -2469.745225
siesta:         Corr. =    -318.740422
siesta:     Bulk bias =       0.000000
siesta:   Exch.-corr. =   -2788.485648
siesta:  Ion-electron =   -7100.488632
siesta:       Ion-ion =   -2468.102712
siesta:       Ekinion =       0.000000
siesta: D3 dispersion =       0.000000
siesta:         Total =   -6424.377142
siesta:         Fermi =      -7.940055

siesta: Atomic forces (eV/Ang):
siesta:      1    3.979048    0.123394    1.215409
siesta:      2    2.442787    1.161056   -3.675960
siesta:      3   -7.992608   -4.246955   -1.114557
siesta:      4   -4.456187   -1.973244    1.626835
siesta:      5   -1.264116   -2.382797    2.157720
siesta:      6    4.419044   -0.621617   -1.224582
siesta:      7   -4.850899   -5.714943    2.589839
siesta:      8    3.827023   -2.339109   -0.536089
siesta:      9    2.691903    4.288606   -2.439466
siesta:     10    4.158092   -1.528473   -0.969189
siesta:     11    4.338916    1.873724    1.250417
siesta:     12    0.623373    2.265025   -0.351601
siesta:     13    1.654429   -5.024846   -1.101911
siesta:     14   -1.441263    3.380546   -1.935052
siesta:     15    1.843845    1.123308    0.773901
siesta:     16    1.181087   -0.554436    3.580487
siesta:     17   -5.658824    1.636814    2.186852
siesta:     18    0.390174   -1.298438   -1.595261
siesta:     19   -1.332481    0.589978   -1.357615
siesta:     20    1.269553   -1.930782   -2.741399
siesta:     21    1.558583    1.900013   -1.279712
siesta:     22   -1.475033    1.988229    2.672457
siesta:     23   -1.114268   -3.471801    1.913128
siesta:     24    2.261860    0.901004    1.498926
siesta:     25   -4.682991   -0.381122    6.949380
siesta:     26   -0.068991   -0.995422    2.092470
siesta:     27    1.067005    3.574307    0.156074
siesta:     28    3.199703   -1.915249   -1.009128
siesta:     29   -0.491208    2.276556    2.543011
siesta:     30   -2.250241    3.676441    0.787847
siesta:     31   -1.184087   -3.232790   -0.638317
siesta:     32    3.047271    1.396903    3.781302
siesta:     33   -3.902990    0.869290   -5.919406
siesta:     34    5.729118   -6.238318    5.871061
siesta:     35    3.046506    1.256978   -1.183009
siesta:     36   -1.296694   -2.466524   -5.786195
siesta:     37   -2.227189   -4.071010   -4.049051
siesta:     38    0.849561    7.175358   -0.097065
siesta:     39    4.699693   -5.998678    1.634700
siesta:     40   -2.493928    1.788637    0.087177
siesta:     41  -12.088919   -3.782045    2.832937
siesta:     42    1.570880    1.008652   -0.374978
siesta:     43   -3.381321    3.898337   -1.909098
siesta:     44   -2.723077   -0.015301    3.406972
siesta:     45    2.752675   -2.589894   -1.401806
siesta:     46   -2.118205    5.172208   -1.626713
siesta:     47   -3.740321   -3.106043   -3.653270
siesta:     48    1.191849    3.481689    3.637109
siesta:     49   -2.515982    1.089277    1.177412
siesta:     50   -1.869139   -3.608490   -6.579330
siesta:     51    2.085044    5.953949   -2.288679
siesta:     52    0.190235   -0.994173    0.695006
siesta:     53    0.708018   -0.775419    4.943880
siesta:     54    1.347801    3.721490    0.562441
siesta:     55   -4.018311    0.694209    0.118997
siesta:     56    1.654418   -3.682731    4.331434
siesta:     57   -1.718263   -0.470692   -4.861361
siesta:     58    3.669753    3.805627   -1.027984
siesta:     59   -0.477491    4.098478    0.207122
siesta:     60    0.864838   -2.064721   -0.289816
siesta:     61    1.830814   -2.281981    3.641270
siesta:     62    3.580000    0.538085   -5.938146
siesta:     63    1.136203    0.090992    1.088274
siesta:     64    1.977493    2.955715   -3.050449
siesta: ----------------------------------------
siesta:    Tot    0.003569   -0.003169    0.005651

siesta: Stress tensor (static) (eV/Ang**3):
siesta:    -1.319114   -0.086071   -0.058590
siesta:    -0.086070   -1.357509    0.026174
siesta:    -0.058589    0.026173   -1.414126

siesta: Cell volume =        294.043806 Ang**3

siesta: Pressure (static):
siesta:                Solid            Molecule  Units
siesta:           0.01485129          0.01531812  Ry/Bohr**3
siesta:           1.36358304          1.40644469  eV/Ang**3
siesta:        2184.70088460       2253.37282395  kBar
(Free)E+ p_basis*V_orbitals  =       -6377.921652
(Free)Eharris+ p_basis*V_orbitals  =       -6377.921652

cite: Please see "aiida.bib" for an exhaustive BiBTeX file.
cite: Please clearly indicate Siesta version in published work: NO_VERSION_LABEL_AVAILABLE
cite: This calculation has made use of the following articles
cite: which are encouraged to be cited in a published work.
        Primary SIESTA paper
          DOI: www.doi.org/10.1088/0953-8984/14/11/302

 global_section                   1    9840.700  100.00
  siesta                          1    9840.700  100.00
   Setup                          1       0.169    0.00
    bands                         1       0.000    0.00
    KSV_init                      1       0.000    0.00
   IterGeom                       1    9839.701   99.99
    geom_init                     1       5.521    0.06
     state_init                   1       0.655    0.01
      hsparse                     1       0.058    0.00
      overlap                     1       0.183    0.00
     Setup_H0                     1       2.257    0.02
      naefs                       1       0.004    0.00
      MolMec                      1       0.000    0.00
      kinefsm                     1       0.179    0.00
      nlefsm                      1       0.622    0.01
      DHSCF_Init                  1       1.449    0.01
       DHSCF1                     1       0.037    0.00
        INITMESH                  1       0.000    0.00
       DHSCF2                     1       1.412    0.01
        REMESH                    1       0.212    0.00
         INITMESH                 2       0.001    0.00
          SPLOAD                  2       0.001    0.00
        REORD                     2       0.000    0.00
        PHION                     1       0.877    0.01
        COMM_BSC                  1       0.000    0.00
        POISON                    1       0.003    0.00
         fft                      2       0.003    0.00
     setup_H                      1       2.609    0.03
      DHSCF                       1       2.607    0.03
       DHSCF3                     1       2.607    0.03
        rhoofd                    1       1.637    0.02
        COMM_BSC                  2       0.009    0.00
        POISON                    1       0.003    0.00
         fft                      2       0.002    0.00
        XC                        1       0.025    0.00
         COMM_BSC                 2       0.000    0.00
         GXC-CellXC               1       0.025    0.00
          gridxc@cellXC           1       0.025    0.00
        vmat                      1       0.933    0.01
    IterSCF                      26    9819.330   99.78
     compute_dm                  26    9748.374   99.06
      diagon                     26    9748.330   99.06
       c-eigval               24648    4431.793   45.04
        c-buildHS             24648      48.655    0.49
        cdiag                 24648    4383.101   44.54
         cdiag1               24648     250.466    2.55
         cdiag2               24648     867.095    8.81
         cdiag3               24648    3207.098   32.59
       c-eigvec               24648    4613.630   46.88
        cdiag                 24648    4566.279   46.40
         cdiag1               24648     252.846    2.57
         cdiag2               24648     870.657    8.85
         cdiag3               24648    3218.061   32.70
         cdiag4               24648     169.156    1.72
       c-buildD               24648     699.544    7.11
     setup_H                     26      69.431    0.71
      DHSCF                      26      69.383    0.71
       DHSCF3                    26      69.383    0.71
        rhoofd                   26      42.639    0.43
        COMM_BSC                 52       1.301    0.01
        POISON                   26       0.070    0.00
         fft                     52       0.064    0.00
        XC                       26       0.631    0.01
         COMM_BSC                52       0.011    0.00
         GXC-CellXC              26       0.620    0.01
          gridxc@cellXC          26       0.620    0.01
        vmat                     26      24.733    0.25
     MIXER                       25       0.313    0.00
    PostSCF                       1      14.826    0.15
     naefs                        1       0.004    0.00
     kinefsm                      1       0.038    0.00
     nlefsm                       1       0.369    0.00
     DHSCF                        1      13.859    0.14
      DHSCF3                      1       2.649    0.03
       rhoofd                     1       1.619    0.02
       COMM_BSC                   2       0.086    0.00
       POISON                     1       0.003    0.00
        fft                       2       0.003    0.00
       XC                         1       0.024    0.00
        COMM_BSC                  2       0.000    0.00
        GXC-CellXC                1       0.024    0.00
         gridxc@cellXC            1       0.024    0.00
       vmat                       1       0.916    0.01
      DHSCF4                      1      11.210    0.11
       REORD                     10       0.000    0.00
       COMM_BSC                   2       0.011    0.00
       dfscf                      1      11.078    0.11
     overfsm                      1       0.037    0.00
     MolMec                       1       0.000    0.00
     writeHSX                     1       0.071    0.00
    state_analysis                1       0.001    0.00
    siesta_move                   1       0.000    0.00
   Analysis                       1       0.823    0.01
    optical                       1       0.000    0.00

>> End of run:  19-APR-2024  19:24:40
Job completed