Runtime information:
* Directory : /home/ICN2/jgarridoa/aiida_run/d7/24/6cc9-7687-431d-8cc3-51ec45bc4f29
>> Start of run:  22-APR-2024   3:42:55

reinit: Reading from standard input
reinit: Dumping input in INPUT_TMP.10125
************************** Dump of input data file ****************************
atomiccoordinatesformat Ang
cdfsave True
dminitspinaf False
dmmixingweight 0.025
dmmixscf1 True
dmnumberpulay 10
dmtolerance 1e-05
electronictemperature 50.000 K
geometrymustconverge T
latticeconstant 1.0 Ang
maxscfiterations 1000
meshcutoff 400 Ry
noncollinearspin False
numberofatoms 8
numberofspecies 2
savehs True
solutionmethod diagon
spinorbit False
spinpolarized False
systemlabel aiida
systemname aiida
usetreetimer T
writedmhsnetcdf True
writeorbmom True
xcauthors PBEsol
xcfunctional GGA
xmlwrite T
#
# -- Basis Set Info follows
#
PAO-BasisSize DZP
PAO-SplitNorm 0.15
PAO-EnergyShift 0.005 Ry
#
# -- Structural Info follows
#
%block chemicalspecieslabel
    1     5      B
    2     7      N
%endblock chemicalspecieslabel
%block lattice-vectors
      4.6960700000       0.0000000000       0.0000000000
      0.0000000000       2.5946700000       0.0000000000
      0.0000000000       0.0000000000       7.0289300000
%endblock lattice-vectors
%block atomiccoordinatesandatomicspecies
      0.0905402296       2.5942807995       0.0009840502    1      B      1
      0.8320027219       1.3187669742       0.0186266645    2      N      2
      3.0422550281       0.0192265047       0.0042173580    1      B      3
      2.3234275932       1.3149787560       0.0081535588    2      N      4
      4.6620234925       0.0155939667       3.5129889247    2      N      5
      0.7026729541       1.3282894131       3.5077172272    1      B      6
      3.1747311628       0.0143225784       3.5184714901    2      N      7
      2.4385752296       1.3115018982       3.5051165231    1      B      8
%endblock atomiccoordinatesandatomicspecies
#
# -- K-points Info follows
#
%block kgrid_monkhorst_pack
    14      0      0       0.0000000000
     0     14      0       0.0000000000
     0      0     14       0.0000000000
%endblock kgrid_monkhorst_pack
#
#
maxwalltime 7200000
************************** End of input data file *****************************

reinit: -----------------------------------------------------------------------
reinit: System Name: aiida
reinit: -----------------------------------------------------------------------
reinit: System Label: aiida
reinit: -----------------------------------------------------------------------

initatom: Reading input for the pseudopotentials and atomic orbitals ----------
Species number:   1 Atomic number:    5 Label: B
Species number:   2 Atomic number:    7 Label: N

---- Processing specs for species: B
Ground state valence configuration:   2s02  2p01
Reading pseudopotential information in PSML from:
  B.psml
PSML file version: 1.1
GGA--PBEsol XC_GGA_X_PBE_SOL--XC_GGA_C_PBE_SOL ps
PSML uuid: 4c4355a0-1d5f-11e8-6182-f22cff9f01b0

---- Processing specs for species: N
Ground state valence configuration:   2s02  2p03
Reading pseudopotential information in PSML from:
  N.psml
PSML file version: 1.1
GGA--PBEsol XC_GGA_X_PBE_SOL--XC_GGA_C_PBE_SOL ps
PSML uuid: 56b43770-1d5f-11e8-525f-e1e3c77dc801

---- Pseudopotential check for B

Pseudized shells:
2s( 2.00) rc: 1.21
2p( 1.00) rc: 1.21
Valence configuration for ps generation: 2s:2p: Total charge:   3.000000

---- Pseudopotential check for N

Pseudized shells:
2s( 2.00) rc: 1.21
2p( 3.00) rc: 1.36
Valence configuration for ps generation: 2s:2p: Total charge:   5.000000
For B, standard SIESTA heuristics set lmxkb to 3
 (one more than the basis l, including polarization orbitals).
Use PS.lmax or PS.KBprojectors blocks to override.
For N, standard SIESTA heuristics set lmxkb to 3
 (one more than the basis l, including polarization orbitals).
Use PS.lmax or PS.KBprojectors blocks to override.
B pseudopotential only contains V_ls up to l=1 -- lmxkb reset.
N pseudopotential only contains V_ls up to l=1 -- lmxkb reset.

<basis_specs>
B                    Z=   5    Mass=  10.810        Charge= 0.17977+309
Lmxo=2 Lmxkb= 1    BasisType=split      Semic=F
L=0  Nsemic=0  Cnfigmx=2
          i=1  nzeta=2  polorb=0  (2s)
            splnorm:   0.15000
               vcte:    40.000
               rinn:  -0.90000
               qcoe:    0.0000
               qyuk:    0.0000
               qwid:   0.10000E-01
                rcs:    0.0000      0.0000
            lambdas:    1.0000      1.0000
L=1  Nsemic=0  Cnfigmx=2
          i=1  nzeta=2  polorb=1  (2p)  (to be polarized perturbatively)
            splnorm:   0.15000
               vcte:    40.000
               rinn:  -0.90000
               qcoe:    0.0000
               qyuk:    0.0000
               qwid:   0.10000E-01
                rcs:    0.0000      0.0000
            lambdas:    1.0000      1.0000
L=2  Nsemic=0  Cnfigmx=3
          i=1  nzeta=0  polorb=0  (3d)  (perturbative polarization orbital) (from 2p)
L=0  Nkbl=1  erefs: 0.17977+309
L=1  Nkbl=1  erefs: 0.17977+309
</basis_specs>

Using PAO.SplitTailNorm
atom: Called for B                     (Z =   5)
NOTE: B pseudopotential has channels up to l= 1
NOTE: PAOs with higher l will be generated with V_local
Maximum radius (at nrval) set to   50.00000 8518

read_vps: Pseudopotential generation method:
read_vps: ONCVPSP-3.Hamann's oncvpsp
Valence charge in pseudo generation:    3.00000

read_vps: Pseudopotential includes a core correction:
read_vps: Pseudo-core for xc-correction

xc_check: Exchange-correlation functional:
xc_check: GGA PBEsol
Got Vlocal (oncv-fit) from psml data
Choosing vlocal chloc cutoff:  3.201794
qtot up to nchloc:    3.00023194
atom: Maximum radius for chlocal:    3.20179
atom: Maximum radius for r*vlocal+2*Zval:    3.20179
Reading KB projs from B psml data
Using scalar-relativistic projectors in PSML file

PSML: Kleinman-Bylander projectors:
   l= 0   rc=  1.223468   Ekb= 16.933205
   l= 0   rc=  1.223468   Ekb=  2.495260
   l= 1   rc=  1.223468   Ekb= -7.218359
   l= 1   rc=  1.223468   Ekb= -1.645242

PSML: Total number of  Kleinman-Bylander projectors:   8
atom: -------------------------------------------------------------------------

atom: SANKEY-TYPE ORBITALS:
atom: Selected multiple-zeta basis: split

SPLIT: Orbitals with angular momentum L= 0

SPLIT: Basis orbitals for state 2s

SPLIT: PAO cut-off radius determined from an
SPLIT: energy shift=  0.005000 Ry
Split based on tail norm

   izeta = 1
                 lambda =    1.000000
                     rc =    5.714927
                 energy =   -0.682223
                kinetic =    0.604116
    potential(screened) =   -1.286339
       potential(ionic) =   -3.302390

   izeta = 2
                 rmatch =    3.823698
              splitnorm =    0.150000
                 energy =   -0.502064
                kinetic =    1.116406
    potential(screened) =   -1.618470
       potential(ionic) =   -3.792969

[...]

SPLIT: Basis orbitals for state 2p

[...]

   izeta = 2
                 rmatch =    4.748011
              splitnorm =    0.150000
                 energy =   -0.176810
                kinetic =    2.206388
    potential(screened) =   -2.383198
       potential(ionic) =   -4.488680
*Note: V_local used for l= 2

** Using vlocal for PAOs with L= 2

POLgen: Perturbative polarization orbital with L=  2

POLgen: Polarization orbital for state 2p
*Note: V_local used for lpol= 2

** Using vlocal for PAOs with L= 2
Split based on tail norm

   izeta = 1
                     rc =    7.066857
                 energy =    0.676401
                kinetic =    1.417761
    potential(screened) =   -0.741360
       potential(ionic) =   -2.355753
atom: Total number of Sankey-type orbitals: 13

atm_pop: Valence configuration (for local Pseudopot. screening):
 2s( 2.00)
 2p( 1.00)
 3d( 0.00)
Vna: chval, zval:    3.00000   3.00000

Vna:  Cut-off radius for the neutral-atom potential:   7.066857
comcore: Pseudo-core radius Rcore=  1.975419

atom: _________________________________________________________________________

<basis_specs>
N                    Z=   7    Mass=  14.007        Charge= 0.17977+309
Lmxo=2 Lmxkb= 1    BasisType=split      Semic=F
L=0  Nsemic=0  Cnfigmx=2
          i=1  nzeta=2  polorb=0  (2s)
            splnorm:   0.15000
               vcte:    40.000
               rinn:  -0.90000
               qcoe:    0.0000
               qyuk:    0.0000
               qwid:   0.10000E-01
                rcs:    0.0000      0.0000
            lambdas:    1.0000      1.0000
L=1  Nsemic=0  Cnfigmx=2
          i=1  nzeta=2  polorb=1  (2p)  (to be polarized perturbatively)
            splnorm:   0.15000
               vcte:    40.000
               rinn:  -0.90000
               qcoe:    0.0000
               qyuk:    0.0000
               qwid:   0.10000E-01
                rcs:    0.0000      0.0000
            lambdas:    1.0000      1.0000
L=2  Nsemic=0  Cnfigmx=3
          i=1  nzeta=0  polorb=0  (3d)  (perturbative polarization orbital) (from 2p)
L=0  Nkbl=1  erefs: 0.17977+309
L=1  Nkbl=1  erefs: 0.17977+309
</basis_specs>

Using PAO.SplitTailNorm
atom: Called for N                     (Z =   7)
NOTE: N pseudopotential has channels up to l= 1
NOTE: PAOs with higher l will be generated with V_local
Maximum radius (at nrval) set to   50.00000 8518

read_vps: Pseudopotential generation method:
read_vps: ONCVPSP-3.Hamann's oncvpsp
Valence charge in pseudo generation:    5.00000

read_vps: Pseudopotential includes a core correction:
read_vps: Pseudo-core for xc-correction

xc_check: Exchange-correlation functional:
xc_check: GGA PBEsol
Got Vlocal (oncv-fit) from psml data
Choosing vlocal chloc cutoff:  6.038618
qtot up to nchloc:    4.99997633
atom: Maximum radius for chlocal:    6.03862
atom: Maximum radius for r*vlocal+2*Zval:    6.03862
Reading KB projs from N psml data
Using scalar-relativistic projectors in PSML file

PSML: Kleinman-Bylander projectors:
   l= 0   rc=  1.214864   Ekb= 14.928379
   l= 0   rc=  1.221004   Ekb=  1.251736
   l= 1   rc=  1.375180   Ekb= -8.619428
   l= 1   rc=  1.375180   Ekb= -2.025883

PSML: Total number of  Kleinman-Bylander projectors:   8
atom: -------------------------------------------------------------------------

atom: SANKEY-TYPE ORBITALS:
atom: Selected multiple-zeta basis: split

[...]

SPLIT: Basis orbitals for state 2s

[...]

   izeta = 2
                 rmatch =    2.696970
              splitnorm =    0.150000
                 energy =   -1.041987
                kinetic =    2.172223
    potential(screened) =   -3.214210
       potential(ionic) =   -9.191634

SPLIT: Orbitals with angular momentum L= 1

SPLIT: Basis orbitals for state 2p

SPLIT: PAO cut-off radius determined from an
SPLIT: energy shift=  0.005000 Ry
Split based on tail norm

   izeta = 1
                 lambda =    1.000000
                     rc =    5.253677
                 energy =   -0.511511
                kinetic =    3.468518
    potential(screened) =   -3.980029
       potential(ionic) =   -9.293867

   izeta = 2
                 rmatch =    3.312873
              splitnorm =    0.150000
[...]
redata: Require DM convergence for SCF              =   T
redata: DM tolerance for SCF                        =     0.000010
redata: Require EDM convergence for SCF             =   F
redata: EDM tolerance for SCF                       =     0.001000 eV
redata: Require H convergence for SCF               =   T
redata: Hamiltonian tolerance for SCF               =     0.001000 eV
redata: Require (free) Energy convergence for SCF   =   F
redata: (free) Energy tolerance for SCF             =     0.000100 eV
redata: Using DFT-D3 dispersion                     =   F
redata: Using Saved Data (generic)                  =   F
redata: Use continuation files for DM               =   T
redata: Neglect nonoverlap interactions             =   F
redata: Method of Calculation                       = Diagonalization
redata: Electronic Temperature                      =    50.0000 K
redata: Fix the spin of the system                  =   F
redata: Max. number of TDED Iter                    =        1
redata: Number of TDED substeps                     =        3
redata: Dynamics option                             = Single-point calculation
mix.SCF: Pulay mixing                            = Pulay
mix.SCF:    Variant                              = stable
mix.SCF:    History steps                        = 10
mix.SCF:    Linear mixing weight                 =     0.025000
mix.SCF:    Mixing weight                        =     0.025000
mix.SCF:    SVD condition                        = 0.1000E-07
redata: ***********************************************************************

%block SCF.Mixers
  Pulay
%endblock SCF.Mixers

%block SCF.Mixer.Pulay
  # Mixing method
  method pulay
  variant stable

  # Mixing options
  weight 0.0250
  weight.linear 0.0250
  history 10
%endblock SCF.Mixer.Pulay

DM_history_depth set to one: no extrapolation allowed by default for geometry relaxation
Size of DM history Fstack: 1
Total number of electrons:    32.000000
Total ionic charge:    32.000000

* ProcessorY, Blocksize:    3   4

* Orbital distribution balance (max,min):     8     4

k-point displ. along   1 input, could be:     0.00    0.50
k-point displ. along   2 input, could be:     0.00    0.50
k-point displ. along   3 input, could be:     0.00    0.50
 Kpoints in:         1568 . Kpoints trimmed:         1484

siesta: k-grid: Number of k-points = 1484
siesta: k-points from Monkhorst-Pack grid
siesta: k-cutoff (effective) =    18.163 Ang
siesta: k-point supercell and displacements
siesta: k-grid:    14     0     0      0.000
siesta: k-grid:     0    14     0      0.000
siesta: k-grid:     0     0    14      0.000

diag: Algorithm                                     = D&C
diag: Parallel over k                               =   F
diag: Use parallel 2D distribution                  =   T
diag: Parallel block-size                           = 4
diag: Parallel distribution                         =     4 x     6
diag: Used triangular part                          = Lower
diag: Absolute tolerance                            =  0.100E-15
diag: Orthogonalization factor                      =  0.100E-05

superc: Internal auxiliary supercell:     5 x     7 x     3  =     105
superc: Number of atoms, orbitals, and projectors:    840  10920   6720

ts: **************************************************************
ts: Save H and S matrices                           =    F
ts: Save DM and EDM matrices                        =    F
ts: Only save the overlap matrix S                  =    F
ts: **************************************************************

************************ Begin: TS CHECKS AND WARNINGS ************************
************************ End: TS CHECKS AND WARNINGS **************************

                        Single-point calculation

superc: Internal auxiliary supercell:     5 x     7 x     3  =     105
superc: Number of atoms, orbitals, and projectors:    840  10920   6720

outcell: Unit cell vectors (Ang):
        4.696070    0.000000    0.000000
        0.000000    2.594670    0.000000
        0.000000    0.000000    7.028930

outcell: Cell vector modules (Ang)   :    4.696070    2.594670    7.028930
outcell: Cell angles (23,13,12) (deg):     90.0000     90.0000     90.0000
outcell: Cell volume (Ang**3)        :     85.6458
<dSpData1D:S at geom step 0
  <sparsity:sparsity for geom step 0
    nrows_g=104 nrows=8 sparsity=.9124 nnzs=9869, refcount: 7>
  <dData1D:(new from dSpData1D) n=9869, refcount: 1>
refcount: 1>
new_DM -- step:     1
Initializing Density Matrix...

Attempting to read DM from file... Failed...
DM filled with atomic data:
<dSpData2D:DM initialized from atoms
  <sparsity:sparsity for geom step 0
    nrows_g=104 nrows=8 sparsity=.9124 nnzs=9869, refcount: 8>
  <dData2D:DM n=9869 m=1, refcount: 1>
refcount: 1>
No. of atoms with KB's overlaping orbs in proc 0. Max # of overlaps:      52     242

InitMesh: MESH = 60 x 32 x 90 = 172800
InitMesh: Mesh cutoff (required, used) =   400.000   420.376 Ry
New grid distribution [1]: sub = 2
New grid distribution [2]: sub = 2
New grid distribution [3]: sub = 2
Setting up quadratic distribution...

stepf: Fermi-Dirac step function

siesta: Program's energy decomposition (eV):
siesta: Ebs     =      -424.854217
siesta: Eions   =      2442.366599
siesta: Ena     =       604.703959
siesta: Ekin    =       998.783689
siesta: Enl     =      -106.146764
siesta: Eso     =         0.000000
siesta: Edftu   =         0.000000
siesta: DEna    =       -45.283580
siesta: DUscf   =         5.225863
siesta: DUext   =         0.000000
siesta: Ex      =      -418.739086
siesta: Ec      =       -41.711937
siesta: Exc     =      -460.451023
siesta: EbV     =         0.000000
siesta: eta*DQ  =         0.000000
siesta: Emadel  =         0.000000
siesta: Emeta   =         0.000000
siesta: Emolmec =         0.000000
siesta: Ekinion =         0.000000
siesta: Eharris =     -1438.610464
siesta: Etot    =     -1445.534455
siesta: FreeEng =     -1445.534455

        iscf     Eharris(eV)        E_KS(eV)     FreeEng(eV)     dDmax    Ef(eV) dHmax(eV)
   scf:    1    -1438.610464    -1445.534455    -1445.534455  1.712699 -5.763633  2.699868
 IterSCF                          1      15.113  100.00
  compute_dm                      1      14.996   99.23
  setup_H                         1       0.115    0.76
  MIXER                           1       0.000    0.00
   scf:    2    -1445.715800    -1445.625737    -1445.625737  0.012330 -5.722264  2.562009
   scf:    3    -1446.786790    -1446.464244    -1446.464244  0.241085 -5.406045  0.622004
   scf:    4    -1446.452377    -1446.528721    -1446.528721  0.030080 -5.567586  0.652622
   scf:    5    -1446.583216    -1446.561162    -1446.561162  0.016934 -5.476307  0.290497
   scf:    6    -1446.549254    -1446.562114    -1446.562114  0.008565 -5.348798  0.200104
   scf:    7    -1446.565040    -1446.568008    -1446.568008  0.009649 -5.383098  0.076719
   scf:    8    -1446.569134    -1446.568621    -1446.568621  0.001499 -5.382359  0.043902
   scf:    9    -1446.569021    -1446.568837    -1446.568837  0.000268 -5.380442  0.027747
   scf:   10    -1446.569093    -1446.569025    -1446.569025  0.001962 -5.382050  0.003268
mix: Pulay -- inversion failed, > SVD [rank/size] 6 / 9
   scf:   11    -1446.569025    -1446.569025    -1446.569025  0.000036 -5.381715  0.002051
   scf:   12    -1446.569026    -1446.569026    -1446.569026  0.000087 -5.381467  0.001555
mix: Pulay -- inversion failed, > SVD [rank/size] 6 / 9
   scf:   13    -1446.569027    -1446.569026    -1446.569026  0.000158 -5.381231  0.000471
mix: Pulay -- inversion failed, > SVD [rank/size] 6 / 9
   scf:   14    -1446.569026    -1446.569026    -1446.569026  0.000003 -5.381235  0.000454

SCF Convergence by DM+H criterion
max |DM_out - DM_in|         :     0.0000033800
max |H_out - H_in|      (eV) :     0.0004537401
SCF cycle converged after 14 iterations

Using DM_out to compute the final energy and forces
No. of atoms with KB's overlaping orbs in proc 0. Max # of overlaps:      52     242

siesta: E_KS(eV) =            -1446.5690

siesta: E_KS - E_eggbox =     -1446.5690

siesta: Atomic forces (eV/Ang):
   Tot    0.005774    0.002006    0.000335
   Max    1.118287
   Res    0.474420    sqrt( Sum f_i^2 / 3N )
   Max    1.118287    constrained

Stress tensor Voigt[x,y,z,yz,xz,xy] (kbar):      194.37      286.97       10.76        0.12        0.15        4.61
(Free)E + p*V (eV/cell)    -1455.3375
Target enthalpy (eV/cell)    -1446.5690

siesta: Program's energy decomposition (eV):
siesta: Ebs     =      -450.836787
siesta: Eions   =      2442.366599
siesta: Ena     =       604.703959
siesta: Ekin    =       964.181989
siesta: Enl     =       -97.146726
siesta: Eso     =         0.000000
siesta: Edftu   =         0.000000
siesta: DEna    =       -24.958233
siesta: DUscf   =         2.828254
siesta: DUext   =         0.000000
siesta: Ex      =      -412.028276
siesta: Ec      =       -41.783395
siesta: Exc     =      -453.811672
siesta: EbV     =         0.000000
siesta: eta*DQ  =         0.000000
siesta: Emadel  =         0.000000
siesta: Emeta   =         0.000000
siesta: Emolmec =         0.000000
siesta: Ekinion =         0.000000
siesta: Eharris =     -1446.569026
siesta: Etot    =     -1446.569026
siesta: FreeEng =     -1446.569026

siesta: Final energy (eV):
siesta:  Band Struct. =    -450.836787
siesta:       Kinetic =     964.181989
siesta:       Hartree =     483.388800
siesta:         Edftu =       0.000000
siesta:       Eso     =       0.000000
siesta:    Ext. field =       0.000000
siesta:         Exch. =    -412.028276
siesta:         Corr. =     -41.783395
siesta:     Bulk bias =       0.000000
siesta:   Exch.-corr. =    -453.811672
siesta:  Ion-electron =   -1867.070381
siesta:       Ion-ion =    -573.257764
siesta:       Ekinion =       0.000000
siesta: D3 dispersion =       0.000000
siesta:         Total =   -1446.569026
siesta:         Fermi =      -5.381235

siesta: Atomic forces (eV/Ang):
siesta:      1    1.118287    0.575672    0.117927
siesta:      2    0.044066   -0.540603   -0.149243
siesta:      3   -0.539868   -0.102323   -0.000837
siesta:      4   -0.617754    0.064579    0.025429
siesta:      5   -0.164431    0.363626    0.004770
siesta:      6   -1.102646   -0.420129    0.012100
siesta:      7    0.173634    0.005932   -0.100098
siesta:      8    1.094485    0.055252    0.090288
siesta: ----------------------------------------
siesta:    Tot    0.005774    0.002006    0.000335

siesta: Stress tensor (static) (eV/Ang**3):
siesta:     0.121313    0.002877    0.000095
siesta:     0.002878    0.179111    0.000077
siesta:     0.000095    0.000077    0.006717

siesta: Cell volume =         85.645769 Ang**3

siesta: Pressure (static):
siesta:                Solid            Molecule  Units
siesta:          -0.00111506         -0.00107813  Ry/Bohr**3
siesta:          -0.10238031         -0.09898906  eV/Ang**3
siesta:        -164.03134171       -158.59795238  kBar
(Free)E+ p_basis*V_orbitals  =       -1441.985012
(Free)Eharris+ p_basis*V_orbitals  =       -1441.985012

cite: Please see "aiida.bib" for an exhaustive BiBTeX file.
cite: Please clearly indicate Siesta version in published work: NO_VERSION_LABEL_AVAILABLE
cite: This calculation has made use of the following articles
cite: which are encouraged to be cited in a published work.
        Primary SIESTA paper
          DOI: www.doi.org/10.1088/0953-8984/14/11/302

 global_section                   1     218.773  100.00
  siesta                          1     218.773  100.00
   Setup                          1       0.183    0.08
    bands                         1       0.000    0.00
    KSV_init                      1       0.000    0.00
   IterGeom                       1     218.405   99.83
    geom_init                     1       1.187    0.54
     state_init                   1       0.144    0.07
      hsparse                     1       0.003    0.00
      overlap                     1       0.069    0.03
     Setup_H0                     1       0.927    0.42
      naefs                       1       0.001    0.00
      MolMec                      1       0.000    0.00
      kinefsm                     1       0.065    0.03
      nlefsm                      1       0.329    0.15
      DHSCF_Init                  1       0.532    0.24
       DHSCF1                     1       0.040    0.02
        INITMESH                  1       0.000    0.00
       DHSCF2                     1       0.492    0.23
        REMESH                    1       0.211    0.10
         INITMESH                 2       0.109    0.05
          SPLOAD                  2       0.108    0.05
        REORD                     2       0.000    0.00
        PHION                     1       0.208    0.10
        COMM_BSC                  1       0.000    0.00
        POISON                    1       0.002    0.00
         fft                      2       0.001    0.00
     setup_H                      1       0.116    0.05
      DHSCF                       1       0.116    0.05
       DHSCF3                     1       0.116    0.05
        rhoofd                    1       0.057    0.03
        COMM_BSC                  2       0.008    0.00
        POISON                    1       0.001    0.00
         fft                      2       0.001    0.00
        XC                        1       0.008    0.00
         COMM_BSC                 2       0.000    0.00
         GXC-CellXC               1       0.008    0.00
          gridxc@cellXC           1       0.008    0.00
        vmat                      1       0.042    0.02
    IterSCF                      14     216.832   99.11
     compute_dm                  14     215.155   98.35
      diagon                     14     215.154   98.35
       c-eigval               20776     101.895   46.58
        c-buildHS             20776       2.778    1.27
        cdiag                 20776      99.101   45.30
         cdiag1               20776       5.694    2.60
         cdiag2               20776      13.319    6.09
         cdiag3               20776      78.403   35.84
       c-eigvec               20776     106.374   48.62
        cdiag                 20776     103.594   47.35
         cdiag1               20776       5.727    2.62
         cdiag2               20776      13.365    6.11
         cdiag3               20776      78.626   35.94
         cdiag4               20776       3.774    1.73
       c-buildD               20776       6.762    3.09
     setup_H                     14       1.644    0.75
      DHSCF                      14       1.643    0.75
       DHSCF3                    14       1.643    0.75
        rhoofd                   14       0.785    0.36
        COMM_BSC                 28       0.149    0.07
        POISON                   14       0.014    0.01
         fft                     28       0.013    0.01
        XC                       14       0.131    0.06
         COMM_BSC                28       0.001    0.00
         GXC-CellXC              14       0.129    0.06
          gridxc@cellXC          14       0.129    0.06
        vmat                     14       0.562    0.26
     MIXER                       13       0.005    0.00
    PostSCF                       1       0.385    0.18
     naefs                        1       0.000    0.00
     kinefsm                      1       0.003    0.00
     nlefsm                       1       0.026    0.01
     DHSCF                        1       0.307    0.14
      DHSCF3                      1       0.116    0.05
       rhoofd                     1       0.055    0.03
       COMM_BSC                   2       0.008    0.00
       POISON                     1       0.001    0.00
        fft                       2       0.001    0.00
       XC                         1       0.008    0.00
        COMM_BSC                  2       0.000    0.00
        GXC-CellXC                1       0.008    0.00
         gridxc@cellXC            1       0.008    0.00
       vmat                       1       0.044    0.02
      DHSCF4                      1       0.191    0.09
       REORD                     10       0.000    0.00
       COMM_BSC                   2       0.000    0.00
       dfscf                      1       0.150    0.07
     overfsm                      1       0.003    0.00
     MolMec                       1       0.000    0.00
     writeHSX                     1       0.003    0.00
    state_analysis                1       0.001    0.00
    siesta_move                   1       0.000    0.00
   Analysis                       1       0.184    0.08
    optical                       1       0.000    0.00

>> End of run:  22-APR-2024   3:46:34
Job completed