Runtime information:
* Directory : /home/ICN2/jgarridoa/aiida_run/6f/47/60c8-66d2-4bb4-8073-1539f8a874da
>> Start of run:  17-APR-2024  20:45:51

reinit: Reading from standard input
reinit: Dumping input in INPUT_TMP.85977
************************** Dump of input data file ****************************
atomiccoordinatesformat Ang
cdfsave True
dminitspinaf False
dmmixingweight 0.025
dmmixscf1 True
dmnumberpulay 10
dmtolerance 1e-05
electronictemperature 50.000 K
geometrymustconverge T
latticeconstant 1.0 Ang
maxscfiterations 1000
meshcutoff 400 Ry
noncollinearspin False
numberofatoms 8
numberofspecies 2
savehs True
solutionmethod diagon
spinorbit False
spinpolarized False
systemlabel aiida
systemname aiida
usetreetimer T
writedmhsnetcdf True
writeorbmom True
xcauthors PBEsol
xcfunctional GGA
xmlwrite T
#
# -- Basis Set Info follows
#
PAO-BasisSize DZP
PAO-SplitNorm 0.15
PAO-EnergyShift 0.005 Ry
#
# -- Structural Info follows
#
%block chemicalspecieslabel
    1     7      N
    2     5      B
%endblock chemicalspecieslabel
%block lattice-vectors
      3.6073000000       0.0000000000       0.0000000000
      0.0000000000       3.7515700000       0.0000000000
      0.0000000000       0.0000000000       3.6739100000
%endblock lattice-vectors
%block atomiccoordinatesandatomicspecies
      3.5748703730       3.7313490377       3.6443717636    1      N      1
      3.5697119340       1.7660515775       1.7660485370    1      N      2
      1.7779660240       3.7259842926       1.7767028760    1      N      3
      1.7660619340       1.7660515775       3.6363259007    1      N      4
      0.8774035790       0.8656747775       0.8787992720    2      B      5
      0.8642730070       2.6678539741       2.6678464856    2      B      6
      2.6678508610       0.8642866966       2.6678464856    2      B      7
      2.6678508610       2.6678539741       0.8642873275    2      B      8
%endblock atomiccoordinatesandatomicspecies
#
# -- K-points Info follows
#
%block kgrid_monkhorst_pack
     6      0      0       0.0000000000
     0      6      0       0.0000000000
     0      0      6       0.0000000000
%endblock kgrid_monkhorst_pack
#
#
maxwalltime 7200000
************************** End of input data file *****************************

reinit: -----------------------------------------------------------------------
reinit: System Name: aiida
reinit: -----------------------------------------------------------------------
reinit: System Label: aiida
reinit: -----------------------------------------------------------------------

initatom: Reading input for the pseudopotentials and atomic orbitals ----------
Species number:   1 Atomic number:    7 Label: N
Species number:   2 Atomic number:    5 Label: B

---- Processing specs for species: N
Ground state valence configuration:   2s02  2p03
Reading pseudopotential information in PSML from:
  N.psml
PSML file version: 1.1
GGA--PBEsol XC_GGA_X_PBE_SOL--XC_GGA_C_PBE_SOL ps
PSML uuid: 56b43770-1d5f-11e8-525f-e1e3c77dc801

---- Processing specs for species: B
Ground state valence configuration:   2s02  2p01
Reading pseudopotential information in PSML from:
  B.psml
PSML file version: 1.1
GGA--PBEsol XC_GGA_X_PBE_SOL--XC_GGA_C_PBE_SOL ps
PSML uuid: 4c4355a0-1d5f-11e8-6182-f22cff9f01b0

---- Pseudopotential check for N

Pseudized shells:
2s( 2.00) rc: 1.21
2p( 3.00) rc: 1.36
Valence configuration for ps generation: 2s:2p: Total charge:   5.000000

---- Pseudopotential check for B

Pseudized shells:
2s( 2.00) rc: 1.21
2p( 1.00) rc: 1.21
Valence configuration for ps generation: 2s:2p: Total charge:   3.000000
For N, standard SIESTA heuristics set lmxkb to 3
 (one more than the basis l, including polarization orbitals).
Use PS.lmax or PS.KBprojectors blocks to override.
For B, standard SIESTA heuristics set lmxkb to 3
 (one more than the basis l, including polarization orbitals).
Use PS.lmax or PS.KBprojectors blocks to override.
N pseudopotential only contains V_ls up to l=1 -- lmxkb reset.
B pseudopotential only contains V_ls up to l=1 -- lmxkb reset.

<basis_specs>
N                    Z=   7    Mass=  14.007        Charge= 0.17977+309
Lmxo=2 Lmxkb= 1    BasisType=split      Semic=F
L=0  Nsemic=0  Cnfigmx=2
          i=1  nzeta=2  polorb=0  (2s)
            splnorm:   0.15000
               vcte:    40.000
               rinn:  -0.90000
               qcoe:    0.0000
               qyuk:    0.0000
               qwid:   0.10000E-01
                rcs:    0.0000      0.0000
            lambdas:    1.0000      1.0000
L=1  Nsemic=0  Cnfigmx=2
          i=1  nzeta=2  polorb=1  (2p)  (to be polarized perturbatively)
            splnorm:   0.15000
               vcte:    40.000
               rinn:  -0.90000
               qcoe:    0.0000
               qyuk:    0.0000
               qwid:   0.10000E-01
                rcs:    0.0000      0.0000
            lambdas:    1.0000      1.0000
L=2  Nsemic=0  Cnfigmx=3
          i=1  nzeta=0  polorb=0  (3d)  (perturbative polarization orbital) (from 2p)
L=0  Nkbl=1  erefs: 0.17977+309
L=1  Nkbl=1  erefs: 0.17977+309
</basis_specs>

Using PAO.SplitTailNorm
atom: Called for N                     (Z =   7)
NOTE: N pseudopotential has channels up to l= 1
NOTE: PAOs with higher l will be generated with V_local
Maximum radius (at nrval) set to   50.00000 8518

read_vps: Pseudopotential generation method:
read_vps: ONCVPSP-3.Hamann's oncvpsp
Valence charge in pseudo generation:    5.00000

read_vps: Pseudopotential includes a core correction:
read_vps: Pseudo-core for xc-correction

xc_check: Exchange-correlation functional:
xc_check: GGA PBEsol
Got Vlocal (oncv-fit) from psml data
Choosing vlocal chloc cutoff:  6.038618
qtot up to nchloc:    4.99997633
atom: Maximum radius for chlocal:    6.03862
atom: Maximum radius for r*vlocal+2*Zval:    6.03862
Reading KB projs from N psml data
Using scalar-relativistic projectors in PSML file

PSML: Kleinman-Bylander projectors:
   l= 0   rc=  1.214864   Ekb= 14.928379
   l= 0   rc=  1.221004   Ekb=  1.251736
   l= 1   rc=  1.375180   Ekb= -8.619428
   l= 1   rc=  1.375180   Ekb= -2.025883

PSML: Total number of  Kleinman-Bylander projectors:   8
atom: -------------------------------------------------------------------------

atom: SANKEY-TYPE ORBITALS:
atom: Selected multiple-zeta basis: split

SPLIT: Orbitals with angular momentum L= 0

SPLIT: Basis orbitals for state 2s

SPLIT: PAO cut-off radius determined from an
SPLIT: energy shift=  0.005000 Ry
Split based on tail norm

   izeta = 1
                 lambda =    1.000000
                     rc =    4.265195
                 energy =   -1.350827
                kinetic =    1.238925
    potential(screened) =   -2.589752
       potential(ionic) =   -8.091187

   izeta = 2
                 rmatch =    2.696970
              splitnorm =    0.150000
                 energy =   -1.041987
                kinetic =    2.172223
    potential(screened) =   -3.214210
       potential(ionic) =   -9.191634

[...]

SPLIT: Basis orbitals for state 2p

[...]

   izeta = 2
                 rmatch =    3.312873
              splitnorm =    0.150000
                 energy =   -0.376057
                kinetic =    4.835938
    potential(screened) =   -5.211995
       potential(ionic) =  -11.044105
*Note: V_local used for l= 2

** Using vlocal for PAOs with L= 2

POLgen: Perturbative polarization orbital with L=  2

POLgen: Polarization orbital for state 2p
*Note: V_local used for lpol= 2

** Using vlocal for PAOs with L= 2
Split based on tail norm

   izeta = 1
                     rc =    5.253677
                 energy =    1.558482
                kinetic =    2.921564
    potential(screened) =   -1.363082
       potential(ionic) =   -5.578203
atom: Total number of Sankey-type orbitals: 13

atm_pop: Valence configuration (for local Pseudopot. screening):
 2s( 2.00)
 2p( 3.00)
 3d( 0.00)
Vna: chval, zval:    5.00000   5.00000

Vna:  Cut-off radius for the neutral-atom potential:   5.253677
comcore: Pseudo-core radius Rcore=  1.572221

atom: _________________________________________________________________________

<basis_specs>
B                    Z=   5    Mass=  10.810        Charge= 0.17977+309
Lmxo=2 Lmxkb= 1    BasisType=split      Semic=F
L=0  Nsemic=0  Cnfigmx=2
          i=1  nzeta=2  polorb=0  (2s)
            splnorm:   0.15000
               vcte:    40.000
               rinn:  -0.90000
               qcoe:    0.0000
               qyuk:    0.0000
               qwid:   0.10000E-01
                rcs:    0.0000      0.0000
            lambdas:    1.0000      1.0000
L=1  Nsemic=0  Cnfigmx=2
          i=1  nzeta=2  polorb=1  (2p)  (to be polarized perturbatively)
            splnorm:   0.15000
               vcte:    40.000
               rinn:  -0.90000
               qcoe:    0.0000
               qyuk:    0.0000
               qwid:   0.10000E-01
                rcs:    0.0000      0.0000
            lambdas:    1.0000      1.0000
L=2  Nsemic=0  Cnfigmx=3
          i=1  nzeta=0  polorb=0  (3d)  (perturbative polarization orbital) (from 2p)
L=0  Nkbl=1  erefs: 0.17977+309
L=1  Nkbl=1  erefs: 0.17977+309
</basis_specs>

Using PAO.SplitTailNorm
atom: Called for B                     (Z =   5)
NOTE: B pseudopotential has channels up to l= 1
NOTE: PAOs with higher l will be generated with V_local
Maximum radius (at nrval) set to   50.00000 8518

read_vps: Pseudopotential generation method:
read_vps: ONCVPSP-3.Hamann's oncvpsp
Valence charge in pseudo generation:    3.00000

read_vps: Pseudopotential includes a core correction:
read_vps: Pseudo-core for xc-correction

xc_check: Exchange-correlation functional:
xc_check: GGA PBEsol
Got Vlocal (oncv-fit) from psml data
Choosing vlocal chloc cutoff:  3.201794
qtot up to nchloc:    3.00023194
atom: Maximum radius for chlocal:    3.20179
atom: Maximum radius for r*vlocal+2*Zval:    3.20179
Reading KB projs from B psml data
Using scalar-relativistic projectors in PSML file

PSML: Kleinman-Bylander projectors:
   l= 0   rc=  1.223468   Ekb= 16.933205
   l= 0   rc=  1.223468   Ekb=  2.495260
   l= 1   rc=  1.223468   Ekb= -7.218359
   l= 1   rc=  1.223468   Ekb= -1.645242

PSML: Total number of  Kleinman-Bylander projectors:   8
atom: -------------------------------------------------------------------------

atom: SANKEY-TYPE ORBITALS:
atom: Selected multiple-zeta basis: split

[...]

SPLIT: Basis orbitals for state 2s

[...]

   izeta = 2
                 rmatch =    3.823698
              splitnorm =    0.150000
                 energy =   -0.502064
                kinetic =    1.116406
    potential(screened) =   -1.618470
       potential(ionic) =   -3.792969

SPLIT: Orbitals with angular momentum L= 1

SPLIT: Basis orbitals for state 2p

SPLIT: PAO cut-off radius determined from an
SPLIT: energy shift=  0.005000 Ry
Split based on tail norm

   izeta = 1
                 lambda =    1.000000
                     rc =    7.066857
                 energy =   -0.255540
                kinetic =    1.512761
    potential(screened) =   -1.768301
       potential(ionic) =   -3.690166

   izeta = 2
                 rmatch =    4.748011
              splitnorm =    0.150000
[...]
redata: DM tolerance for SCF                        =     0.000010
redata: Require EDM convergence for SCF             =   F
redata: EDM tolerance for SCF                       =     0.001000 eV
redata: Require H convergence for SCF               =   T
redata: Hamiltonian tolerance for SCF               =     0.001000 eV
redata: Require (free) Energy convergence for SCF   =   F
redata: (free) Energy tolerance for SCF             =     0.000100 eV
redata: Using DFT-D3 dispersion                     =   F
redata: Using Saved Data (generic)                  =   F
redata: Use continuation files for DM               =   T
redata: Neglect nonoverlap interactions             =   F
redata: Method of Calculation                       = Diagonalization
redata: Electronic Temperature                      =    50.0000 K
redata: Fix the spin of the system                  =   F
redata: Max. number of TDED Iter                    =        1
redata: Number of TDED substeps                     =        3
redata: Dynamics option                             = Single-point calculation
mix.SCF: Pulay mixing                            = Pulay
mix.SCF:    Variant                              = stable
mix.SCF:    History steps                        = 10
mix.SCF:    Linear mixing weight                 =     0.025000
mix.SCF:    Mixing weight                        =     0.025000
mix.SCF:    SVD condition                        = 0.1000E-07
redata: ***********************************************************************

%block SCF.Mixers
  Pulay
%endblock SCF.Mixers

%block SCF.Mixer.Pulay
  # Mixing method
  method pulay
  variant stable

  # Mixing options
  weight 0.0250
  weight.linear 0.0250
  history 10
%endblock SCF.Mixer.Pulay

DM_history_depth set to one: no extrapolation allowed by default for geometry relaxation
Size of DM history Fstack: 1
Total number of electrons:    32.000000
Total ionic charge:    32.000000

* ProcessorY, Blocksize:    6   4

* Orbital distribution balance (max,min):     8     4

k-point displ. along   1 input, could be:     0.00    0.50
k-point displ. along   2 input, could be:     0.00    0.50
k-point displ. along   3 input, could be:     0.00    0.50
 Kpoints in:          144 . Kpoints trimmed:          132

siesta: k-grid: Number of k-points = 132
siesta: k-points from Monkhorst-Pack grid
siesta: k-cutoff (effective) =    10.822 Ang
siesta: k-point supercell and displacements
siesta: k-grid:     6     0     0      0.000
siesta: k-grid:     0     6     0      0.000
siesta: k-grid:     0     0     6      0.000

diag: Algorithm                                     = D&C
diag: Parallel over k                               =   F
diag: Use parallel 2D distribution                  =   T
diag: Parallel block-size                           = 4
diag: Parallel distribution                         =     4 x     6
diag: Used triangular part                          = Lower
diag: Absolute tolerance                            =  0.100E-15
diag: Orthogonalization factor                      =  0.100E-05

superc: Internal auxiliary supercell:     5 x     5 x     5  =     125
superc: Number of atoms, orbitals, and projectors:   1000  13000   8000

ts: **************************************************************
ts: Save H and S matrices                           =    F
ts: Save DM and EDM matrices                        =    F
ts: Only save the overlap matrix S                  =    F
ts: **************************************************************

************************ Begin: TS CHECKS AND WARNINGS ************************
************************ End: TS CHECKS AND WARNINGS **************************

                        Single-point calculation

superc: Internal auxiliary supercell:     5 x     5 x     5  =     125
superc: Number of atoms, orbitals, and projectors:   1000  13000   8000

outcell: Unit cell vectors (Ang):
        3.607300    0.000000    0.000000
        0.000000    3.751570    0.000000
        0.000000    0.000000    3.673910

outcell: Cell vector modules (Ang)   :    3.607300    3.751570    3.673910
outcell: Cell angles (23,13,12) (deg):     90.0000     90.0000     90.0000
outcell: Cell volume (Ang**3)        :     49.7192
<dSpData1D:S at geom step 0
  <sparsity:sparsity for geom step 0
    nrows_g=104 nrows=8 sparsity=1.4028 nnzs=15173, refcount: 7>
  <dData1D:(new from dSpData1D) n=15173, refcount: 1>
refcount: 1>
new_DM -- step:     1
Initializing Density Matrix...

Attempting to read DM from file... Failed...
DM filled with atomic data:
<dSpData2D:DM initialized from atoms
  <sparsity:sparsity for geom step 0
    nrows_g=104 nrows=8 sparsity=1.4028 nnzs=15173, refcount: 8>
  <dData2D:DM n=15173 m=1, refcount: 1>
refcount: 1>
No. of atoms with KB's overlaping orbs in proc 0. Max # of overlaps:      61     413

InitMesh: MESH = 48 x 48 x 48 = 110592
InitMesh: Mesh cutoff (required, used) =   400.000   452.437 Ry
New grid distribution [1]: sub = 2
New grid distribution [2]: sub = 2
New grid distribution [3]: sub = 2
Setting up quadratic distribution...

stepf: Fermi-Dirac step function

siesta: Program's energy decomposition (eV):
siesta: Ebs     =      -448.852587
siesta: Eions   =      2442.366599
siesta: Ena     =       592.000891
siesta: Ekin    =      1050.890808
siesta: Enl     =      -122.938191
siesta: Eso     =         0.000000
siesta: Edftu   =         0.000000
siesta: DEna    =       -59.169431
siesta: DUscf   =         7.000743
siesta: DUext   =         0.000000
siesta: Ex      =      -432.850602
siesta: Ec      =       -44.040363
siesta: Exc     =      -476.890965
siesta: EbV     =         0.000000
siesta: eta*DQ  =         0.000000
siesta: Emadel  =         0.000000
siesta: Emeta   =         0.000000
siesta: Emolmec =         0.000000
siesta: Ekinion =         0.000000
siesta: Eharris =     -1425.215982
siesta: Etot    =     -1451.472745
siesta: FreeEng =     -1451.472745

        iscf     Eharris(eV)        E_KS(eV)     FreeEng(eV)     dDmax    Ef(eV) dHmax(eV)
   scf:    1    -1425.215982    -1451.472745    -1451.472745  1.694642 -8.264191  4.176728
 IterSCF                          1       1.570  100.00
  compute_dm                      1       1.369   87.21
  setup_H                         1       0.197   12.57
  MIXER                           1       0.000    0.00
   scf:    2    -1452.028232    -1451.753198    -1451.753198  0.013910 -8.221879  3.924463
   scf:    3    -1454.303611    -1453.771230    -1453.771230  0.197355 -5.568249  0.615698
   scf:    4    -1453.581728    -1453.682975    -1453.682975  0.021015 -5.600609  0.900054
   scf:    5    -1453.908435    -1453.828939    -1453.828939  0.086475 -5.398581  0.176470
   scf:    6    -1453.834639    -1453.833760    -1453.833760  0.015385 -5.361557  0.075290
   scf:    7    -1453.834232    -1453.834434    -1453.834434  0.002028 -5.354306  0.042854
   scf:    8    -1453.834798    -1453.834673    -1453.834673  0.002814 -5.360370  0.006994
   scf:    9    -1453.834685    -1453.834680    -1453.834680  0.000211 -5.359937  0.004987
   scf:   10    -1453.834691    -1453.834686    -1453.834686  0.000743 -5.359625  0.002053
   scf:   11    -1453.834682    -1453.834685    -1453.834685  0.000378 -5.359687  0.002950
mix: Pulay -- inversion failed, > SVD [rank/size] 7 / 9
   scf:   12    -1453.834687    -1453.834687    -1453.834687  0.000109 -5.359727  0.000884
mix: Pulay -- inversion failed, > SVD [rank/size] 7 / 9
   scf:   13    -1453.834687    -1453.834687    -1453.834687  0.000015 -5.359779  0.000782
   scf:   14    -1453.834687    -1453.834687    -1453.834687  0.000090 -5.359863  0.000079
   scf:   15    -1453.834687    -1453.834687    -1453.834687  0.000006 -5.359854  0.000068

SCF Convergence by DM+H criterion
max |DM_out - DM_in|         :     0.0000058926
max |H_out - H_in|      (eV) :     0.0000679833
SCF cycle converged after 15 iterations

Using DM_out to compute the final energy and forces
No. of atoms with KB's overlaping orbs in proc 0. Max # of overlaps:      61     413

siesta: E_KS(eV) =            -1453.8347

siesta: E_KS - E_eggbox =     -1453.8347

siesta: Atomic forces (eV/Ang):
   Tot    0.001049    0.000481    0.001032
   Max    2.869110
   Res    1.289431    sqrt( Sum f_i^2 / 3N )
   Max    2.869110    constrained

Stress tensor Voigt[x,y,z,yz,xz,xy] (kbar):       49.01      293.56      151.64       -5.03        6.03       -0.42
(Free)E + p*V (eV/cell)    -1458.9468
Target enthalpy (eV/cell)    -1453.8347

siesta: Program's energy decomposition (eV):
siesta: Ebs     =      -483.190491
siesta: Eions   =      2442.366599
siesta: Ena     =       592.000891
siesta: Ekin    =       998.098377
siesta: Enl     =      -106.364888
siesta: Eso     =         0.000000
siesta: Edftu   =         0.000000
siesta: DEna    =       -30.419572
siesta: DUscf   =         2.631781
siesta: DUext   =         0.000000
siesta: Ex      =      -423.071551
siesta: Ec      =       -44.343125
siesta: Exc     =      -467.414676
siesta: EbV     =         0.000000
siesta: eta*DQ  =         0.000000
siesta: Emadel  =         0.000000
siesta: Emeta   =         0.000000
siesta: Emolmec =         0.000000
siesta: Ekinion =         0.000000
siesta: Eharris =     -1453.834687
siesta: Etot    =     -1453.834687
siesta: FreeEng =     -1453.834687

siesta: Final energy (eV):
siesta:  Band Struct. =    -483.190491
siesta:       Kinetic =     998.098377
siesta:       Hartree =     198.699813
siesta:         Edftu =       0.000000
siesta:       Eso     =       0.000000
siesta:    Ext. field =       0.000000
siesta:         Exch. =    -423.071551
siesta:         Corr. =     -44.343125
siesta:     Bulk bias =       0.000000
siesta:   Exch.-corr. =    -467.414676
siesta:  Ion-electron =   -1345.803623
siesta:       Ion-ion =    -837.414578
siesta:       Ekinion =       0.000000
siesta: D3 dispersion =       0.000000
siesta:         Total =   -1453.834687
siesta:         Fermi =      -5.359854

siesta: Atomic forces (eV/Ang):
siesta:      1   -0.184080   -2.747844   -1.170633
siesta:      2    0.097506    1.110575    0.507454
siesta:      3   -0.311911   -2.869110    0.192283
siesta:      4    0.043966    1.112604   -1.114063
siesta:      5   -0.259263   -0.852911   -0.744468
siesta:      6    0.172383    2.427665    1.263638
siesta:      7    0.268866   -0.753194    1.501492
siesta:      8    0.173582    2.572696   -0.434671
siesta: ----------------------------------------
siesta:    Tot    0.001049    0.000481    0.001032

siesta: Stress tensor (static) (eV/Ang**3):
siesta:     0.030587   -0.000263    0.003763
siesta:    -0.000263    0.183227   -0.003140
siesta:     0.003763   -0.003140    0.094644

siesta: Cell volume =         49.719165 Ang**3

siesta: Pressure (static):
siesta:                Solid            Molecule  Units
siesta:          -0.00111984         -0.00071900  Ry/Bohr**3
siesta:          -0.10281915         -0.06601588  eV/Ang**3
siesta:        -164.73443434       -105.76909977  kBar
(Free)E+ p_basis*V_orbitals  =       -1449.250673
(Free)Eharris+ p_basis*V_orbitals  =       -1449.250673

cite: Please see "aiida.bib" for an exhaustive BiBTeX file.
cite: Please clearly indicate Siesta version in published work: NO_VERSION_LABEL_AVAILABLE
cite: This calculation has made use of the following articles
cite: which are encouraged to be cited in a published work.
        Primary SIESTA paper
          DOI: www.doi.org/10.1088/0953-8984/14/11/302

 global_section                   1      26.107  100.00
  siesta                          1      26.107  100.00
   Setup                          1       0.159    0.61
    bands                         1       0.000    0.00
    KSV_init                      1       0.000    0.00
   IterGeom                       1      25.929   99.32
    geom_init                     1       1.350    5.17
     state_init                   1       0.152    0.58
      hsparse                     1       0.007    0.03
      overlap                     1       0.069    0.27
     Setup_H0                     1       0.995    3.81
      naefs                       1       0.001    0.00
      MolMec                      1       0.000    0.00
      kinefsm                     1       0.066    0.25
      nlefsm                      1       0.316    1.21
      DHSCF_Init                  1       0.612    2.35
       DHSCF1                     1       0.043    0.16
        INITMESH                  1       0.000    0.00
       DHSCF2                     1       0.569    2.18
        REMESH                    1       0.167    0.64
         INITMESH                 2       0.040    0.15
          SPLOAD                  2       0.040    0.15
        REORD                     2       0.000    0.00
        PHION                     1       0.299    1.15
        COMM_BSC                  1       0.000    0.00
        POISON                    1       0.001    0.00
         fft                      2       0.001    0.00
     setup_H                      1       0.203    0.78
      DHSCF                       1       0.202    0.78
       DHSCF3                     1       0.202    0.78
        rhoofd                    1       0.110    0.42
        COMM_BSC                  2       0.014    0.06
        POISON                    1       0.001    0.00
         fft                      2       0.001    0.00
        XC                        1       0.005    0.02
         COMM_BSC                 2       0.000    0.00
         GXC-CellXC               1       0.005    0.02
          gridxc@cellXC           1       0.005    0.02
        vmat                      1       0.072    0.27
    IterSCF                      15      23.876   91.45
     compute_dm                  15      20.741   79.45
      diagon                     15      20.740   79.44
       c-eigval                1980       9.717   37.22
        c-buildHS              1980       0.400    1.53
        cdiag                  1980       9.316   35.68
         cdiag1                1980       0.534    2.05
         cdiag2                1980       1.247    4.78
         cdiag3                1980       7.360   28.19
       c-eigvec                1980      10.097   38.67
        cdiag                  1980       9.695   37.14
         cdiag1                1980       0.536    2.05
         cdiag2                1980       1.247    4.78
         cdiag3                1980       7.344   28.13
         cdiag4                1980       0.355    1.36
       c-buildD                1980       0.917    3.51
     setup_H                     15       3.076   11.78
      DHSCF                      15       3.074   11.78
       DHSCF3                    15       3.074   11.78
        rhoofd                   15       1.672    6.40
        COMM_BSC                 30       0.232    0.89
        POISON                   15       0.010    0.04
         fft                     30       0.010    0.04
        XC                       15       0.086    0.33
         COMM_BSC                30       0.002    0.01
         GXC-CellXC              15       0.084    0.32
          gridxc@cellXC          15       0.084    0.32
        vmat                     15       1.073    4.11
     MIXER                       14       0.008    0.03
    PostSCF                       1       0.702    2.69
     naefs                        1       0.000    0.00
     kinefsm                      1       0.004    0.01
     nlefsm                       1       0.054    0.21
     DHSCF                        1       0.566    2.17
      DHSCF3                      1       0.200    0.77
       rhoofd                     1       0.106    0.40
       COMM_BSC                   2       0.020    0.08
       POISON                     1       0.001    0.00
        fft                       2       0.001    0.00
       XC                         1       0.006    0.02
        COMM_BSC                  2       0.000    0.00
        GXC-CellXC                1       0.006    0.02
         gridxc@cellXC            1       0.006    0.02
       vmat                       1       0.067    0.26
      DHSCF4                      1       0.366    1.40
       REORD                     10       0.000    0.00
       COMM_BSC                   2       0.010    0.04
       dfscf                      1       0.304    1.17
     overfsm                      1       0.004    0.01
     MolMec                       1       0.000    0.00
     writeHSX                     1       0.005    0.02
    state_analysis                1       0.001    0.00
    siesta_move                   1       0.000    0.00
   Analysis                       1       0.017    0.06
    optical                       1       0.000    0.00

>> End of run:  17-APR-2024  20:46:17
Job completed