Runtime information:
* Directory : /home/ICN2/jgarridoa/aiida_run/86/8c/db7f-1768-432f-b4c5-ae6f34dc6ab9
>> Start of run:  13-APR-2024  12:37:52

reinit: Reading from standard input
reinit: Dumping input in INPUT_TMP.90418
************************** Dump of input data file ****************************
atomiccoordinatesformat Ang
cdfsave True
dminitspinaf False
dmmixingweight 0.025
dmmixscf1 True
dmnumberpulay 10
dmtolerance 1e-05
electronictemperature 50.000 K
geometrymustconverge T
latticeconstant 1.0 Ang
maxscfiterations 1000
meshcutoff 600 Ry
noncollinearspin False
numberofatoms 64
numberofspecies 3
savehs True
solutionmethod diagon
spinorbit False
spinpolarized False
systemlabel aiida
systemname aiida
usetreetimer T
writedmhsnetcdf True
writeorbmom True
xcauthors PBEsol
xcfunctional GGA
xmlwrite T
#
# -- Basis Set Info follows
#
PAO-BasisSize DZP
PAO-SplitNorm 0.15
PAO-EnergyShift 0.005 Ry
#
# -- Structural Info follows
#
%block chemicalspecieslabel
    1     5      B
    2     7      N
    3     6      C
%endblock chemicalspecieslabel
%block lattice-vectors
      8.1260500000       0.0000000000       0.0000000000
      0.0000000000       8.4693200000       0.0000000000
      0.0000000000       0.0000000000       7.9433300000
%endblock lattice-vectors
%block atomiccoordinatesandatomicspecies
      6.5043342015       0.1025634652       3.4670252451    1      B      1
      7.9176168175       2.2574125528       7.6684113487    1      B      2
      1.5048631995       3.4908843176       5.9119027858    1      B      3
      3.3340370545       1.0715383664       0.3229757978    1      B      4
      5.5532613095       0.2907517556       5.6643886230    1      B      5
      7.1053368595       6.4978316904       3.9836594283    1      B      6
      7.5020506205       0.9918420652       5.2149550116    1      B      7
      3.1733037855       2.8627995464       7.0347719146    1      B      8
      3.0871676555       5.1745851336       7.5116894478    1      B      9
      5.3883837550       2.5634090844       5.0965199613    1      B     10
      3.2405062190       5.8475573008       4.0133674825    1      B     11
      3.5887074615       7.9690372676       2.4704550633    1      B     12
      2.1292688815       7.6350919800       6.6974981228    1      B     13
      5.0561095705       5.5610402052       0.8711450011    1      B     14
      0.4067088025       8.3532903160       0.8455674785    1      B     15
      6.7296695680       6.7244706936       6.1595758152    1      B     16
      6.2009074945       4.6010427832       6.7391211720    1      B     17
      5.1905144375       1.9544649764       7.1513005657    1      B     18
      1.7387309185       1.5683486776       1.4004885123    1      B     19
      1.5198151315       6.0846982608       1.2116755582    1      B     20
      3.4004268830       3.5173932892       1.3028649866    1      B     21
      0.4820372860       4.3993882740       2.1965690449    1      B     22
      6.1838427895       2.4127398816       1.5741297061    1      B     23
      4.6428186675       6.3106597184       6.7367381730    1      B     24
      0.2203784760       5.1777187820       5.6764624846    1      B     25
      4.4691649790       1.4470680152       1.7225905438    2      N     26
      1.4812976545       7.5614088960       2.6900881378    2      N     27
      7.4391549935       4.2383865008       0.2959684758    2      N     28
      4.9461641140       6.8499860160       4.9212106682    2      N     29
      6.5333442000       0.6650110064       7.4452832090    2      N     30
      2.4756823930       1.1608049992       3.2234827473    2      N     31
      3.0369486665       7.6731192268       4.5391364952    2      N     32
      0.0521692410       7.8827348968       6.6986896223    2      N     33
      3.9429219810       8.4158785908       6.5866886693    2      N     34
      5.9424178440       4.8323399124       4.6345358885    2      N     35
      6.4135662230       2.4395029328       3.4198418649    2      N     36
      3.2606588230       5.5798420956       1.7657228257    2      N     37
      4.3571880100       4.2698076780       5.9516988691    2      N     38
      2.6360906200       7.5219418648       0.4606337067    2      N     39
      5.1629671280       3.5389900552       0.3508568861    2      N     40
      4.7965635335       4.9133066116       3.1897235948    2      N     41
      4.7142466470       0.6899108072       3.9196361885    2      N     42
      6.5434205020       4.6456760996       2.0929085884    2      N     43
      1.5079510985       5.4456033736       3.7084230438    2      N     44
      6.6150922630       0.2743212748       1.5788957041    2      N     45
      2.9796600140       3.9495826888       4.5498599907    2      N     46
      0.0646020975       2.3378710928       1.7043208848    2      N     47
      2.3220187875       5.9095527232       5.9564648671    2      N     48
      2.2008593820       3.4023799236       2.5855539150    2      N     49
      0.9026416340       2.5706080064       4.1795419461    2      N     50
      6.7285319210       6.5452598824       0.2026343483    2      N     51
      1.4714651340       0.6838975900       5.1916016214    3      C     52
      7.6726164100       6.5467843600       2.0271378160    3      C     53
      1.4721152180       3.7247222428       0.2347254015    3      C     54
      7.8548837115       4.0379176964       3.9699969007    3      C     55
      0.7496281125       7.1812211212       4.7260430501    3      C     56
      0.2064829305       0.7459777056       3.0496032536    3      C     57
      4.2468362510       2.8985400768       3.2774179580    3      C     58
      5.3826142595       6.9295129308       2.6241584988    3      C     59
      1.4331101780       1.3091874856       7.1012575867    3      C     60
      0.5597223240       5.6813892424       7.4379753454    3      C     61
      7.3192144955       2.9146317848       5.9346207096    3      C     62
      4.9581906680       7.8067650964       0.5426088723    3      C     63
      3.2744731080       1.6875120100       5.2221040086    3      C     64
%endblock atomiccoordinatesandatomicspecies
#
# -- K-points Info follows
#
%block kgrid_monkhorst_pack
     8      0      0       0.0000000000
     0      8      0       0.0000000000
     0      0      8       0.0000000000
%endblock kgrid_monkhorst_pack
#
#
maxwalltime 7200000
************************** End of input data file *****************************

reinit: -----------------------------------------------------------------------
reinit: System Name: aiida
reinit: -----------------------------------------------------------------------
reinit: System Label: aiida
reinit: -----------------------------------------------------------------------

initatom: Reading input for the pseudopotentials and atomic orbitals ----------
Species number:   1 Atomic number:    5 Label: B
Species number:   2 Atomic number:    7 Label: N
Species number:   3 Atomic number:    6 Label: C

---- Processing specs for species: B
Ground state valence configuration:   2s02  2p01
Reading pseudopotential information in PSML from:
  B.psml
PSML file version: 1.1
GGA--PBEsol XC_GGA_X_PBE_SOL--XC_GGA_C_PBE_SOL ps
PSML uuid: 4c4355a0-1d5f-11e8-6182-f22cff9f01b0

---- Processing specs for species: N
Ground state valence configuration:   2s02  2p03
Reading pseudopotential information in PSML from:
  N.psml
PSML file version: 1.1
GGA--PBEsol XC_GGA_X_PBE_SOL--XC_GGA_C_PBE_SOL ps
PSML uuid: 56b43770-1d5f-11e8-525f-e1e3c77dc801

---- Processing specs for species: C
Ground state valence configuration:   2s02  2p02
Reading pseudopotential information in PSML from:
  C.psml
PSML file version: 1.1
GGA--PBEsol XC_GGA_X_PBE_SOL--XC_GGA_C_PBE_SOL ps
PSML uuid: 51a02af0-1d5f-11e8-49c3-12b9ebd99919

---- Pseudopotential check for B

Pseudized shells:
2s( 2.00) rc: 1.21
2p( 1.00) rc: 1.21
Valence configuration for ps generation: 2s:2p: Total charge:   3.000000

[...]

Pseudized shells:
2s( 2.00) rc: 1.21
2p( 3.00) rc: 1.36
Valence configuration for ps generation: 2s:2p: Total charge:   5.000000

---- Pseudopotential check for C

Pseudized shells:
2s( 2.00) rc: 1.20
2p( 2.00) rc: 1.26
Valence configuration for ps generation: 2s:2p: Total charge:   4.000000
For B, standard SIESTA heuristics set lmxkb to 3
 (one more than the basis l, including polarization orbitals).
Use PS.lmax or PS.KBprojectors blocks to override.
For N, standard SIESTA heuristics set lmxkb to 3
 (one more than the basis l, including polarization orbitals).
Use PS.lmax or PS.KBprojectors blocks to override.
For C, standard SIESTA heuristics set lmxkb to 3
 (one more than the basis l, including polarization orbitals).
Use PS.lmax or PS.KBprojectors blocks to override.
B pseudopotential only contains V_ls up to l=1 -- lmxkb reset.
N pseudopotential only contains V_ls up to l=1 -- lmxkb reset.
C pseudopotential only contains V_ls up to l=1 -- lmxkb reset.

<basis_specs>
B                    Z=   5    Mass=  10.810        Charge= 0.17977+309
Lmxo=2 Lmxkb= 1    BasisType=split      Semic=F
L=0  Nsemic=0  Cnfigmx=2
          i=1  nzeta=2  polorb=0  (2s)
            splnorm:   0.15000
               vcte:    40.000
               rinn:  -0.90000
               qcoe:    0.0000
               qyuk:    0.0000
               qwid:   0.10000E-01
                rcs:    0.0000      0.0000
            lambdas:    1.0000      1.0000
L=1  Nsemic=0  Cnfigmx=2
          i=1  nzeta=2  polorb=1  (2p)  (to be polarized perturbatively)
            splnorm:   0.15000
               vcte:    40.000
               rinn:  -0.90000
               qcoe:    0.0000
               qyuk:    0.0000
               qwid:   0.10000E-01
                rcs:    0.0000      0.0000
            lambdas:    1.0000      1.0000
L=2  Nsemic=0  Cnfigmx=3
          i=1  nzeta=0  polorb=0  (3d)  (perturbative polarization orbital) (from 2p)
L=0  Nkbl=1  erefs: 0.17977+309
L=1  Nkbl=1  erefs: 0.17977+309
</basis_specs>

Using PAO.SplitTailNorm
atom: Called for B                     (Z =   5)
NOTE: B pseudopotential has channels up to l= 1
NOTE: PAOs with higher l will be generated with V_local
Maximum radius (at nrval) set to   50.00000 8518

read_vps: Pseudopotential generation method:
read_vps: ONCVPSP-3.Hamann's oncvpsp
Valence charge in pseudo generation:    3.00000

read_vps: Pseudopotential includes a core correction:
read_vps: Pseudo-core for xc-correction

xc_check: Exchange-correlation functional:
xc_check: GGA PBEsol
Got Vlocal (oncv-fit) from psml data
Choosing vlocal chloc cutoff:  3.201794
qtot up to nchloc:    3.00023194
atom: Maximum radius for chlocal:    3.20179
atom: Maximum radius for r*vlocal+2*Zval:    3.20179
Reading KB projs from B psml data
Using scalar-relativistic projectors in PSML file

PSML: Kleinman-Bylander projectors:
   l= 0   rc=  1.223468   Ekb= 16.933205
   l= 0   rc=  1.223468   Ekb=  2.495260
   l= 1   rc=  1.223468   Ekb= -7.218359
   l= 1   rc=  1.223468   Ekb= -1.645242

PSML: Total number of  Kleinman-Bylander projectors:   8
atom: -------------------------------------------------------------------------

[...]
  <sparsity:sparsity for geom step 0
    nrows_g=832 nrows=35 sparsity=.0953 nnzs=66000, refcount: 7>
  <dData1D:(new from dSpData1D) n=66000, refcount: 1>
refcount: 1>
new_DM -- step:     1
Initializing Density Matrix...

Attempting to read DM from file... Failed...
DM filled with atomic data:
<dSpData2D:DM initialized from atoms
  <sparsity:sparsity for geom step 0
    nrows_g=832 nrows=35 sparsity=.0953 nnzs=66000, refcount: 8>
  <dData2D:DM n=66000 m=1, refcount: 1>
refcount: 1>
No. of atoms with KB's overlaping orbs in proc 0. Max # of overlaps:     109     334

InitMesh: MESH = 120 x 128 x 120 = 1843200
InitMesh: Mesh cutoff (required, used) =   600.000   602.706 Ry
New grid distribution [1]: sub = 2
New grid distribution [2]: sub = 2
New grid distribution [3]: sub = 2
Setting up quadratic distribution...

stepf: Fermi-Dirac step function

siesta: Program's energy decomposition (eV):
siesta: Ebs     =     -2929.464588
siesta: Eions   =     19384.568761
siesta: Ena     =      5039.834521
siesta: Ekin    =      6837.974023
siesta: Enl     =      -393.540839
siesta: Eso     =         0.000000
siesta: Edftu   =         0.000000
siesta: DEna    =        96.646525
siesta: DUscf   =        26.540752
siesta: DUext   =         0.000000
siesta: Ex      =     -3124.224663
siesta: Ec      =      -340.356197
siesta: Exc     =     -3464.580860
siesta: EbV     =         0.000000
siesta: eta*DQ  =         0.000000
siesta: Emadel  =         0.000000
siesta: Emeta   =         0.000000
siesta: Emolmec =         0.000000
siesta: Ekinion =         0.000000
siesta: Eharris =    -11170.929101
siesta: Etot    =    -11241.694638
siesta: FreeEng =    -11241.695859

        iscf     Eharris(eV)        E_KS(eV)     FreeEng(eV)     dDmax    Ef(eV) dHmax(eV)
   scf:    1   -11170.929101   -11241.694638   -11241.695859  1.708661 -5.418657  8.586202
 IterSCF                          1     114.925  100.00
  compute_dm                      1     113.426   98.70
  setup_H                         1       1.481    1.29
  MIXER                           1       0.001    0.00
   scf:    2   -11250.772239   -11246.463908   -11246.465139  0.041696 -5.405167  6.827593
   scf:    3   -11259.018319   -11255.165952   -11255.167245  0.152596 -5.355051  2.147997
   scf:    4   -11256.629089   -11256.111436   -11256.112750  0.039780 -5.345272  1.644698
   scf:    5   -11257.133525   -11256.745743   -11256.747092  0.037702 -5.333271  0.943685
   scf:    6   -11257.262923   -11257.071961   -11257.073347  0.030264 -5.334073  0.512637
   scf:    7   -11257.162763   -11257.127766   -11257.129169  0.011173 -5.338783  0.285037
   scf:    8   -11257.214891   -11257.176187   -11257.177596  0.007565 -5.348694  0.194656
   scf:    9   -11257.257592   -11257.221766   -11257.223178  0.012289 -5.365725  0.175687
   scf:   10   -11257.244558   -11257.234333   -11257.235743  0.006048 -5.375635  0.157373
   scf:   11   -11257.257850   -11257.247259   -11257.248670  0.010370 -5.388467  0.115781
   scf:   12   -11257.259223   -11257.253992   -11257.255398  0.006663 -5.401232  0.059317
   scf:   13   -11257.256133   -11257.255134   -11257.256541  0.002460 -5.404977  0.038924
   scf:   14   -11257.256371   -11257.255865   -11257.257271  0.001634 -5.408178  0.025318
   scf:   15   -11257.256757   -11257.256367   -11257.257774  0.001575 -5.410388  0.013416
   scf:   16   -11257.256530   -11257.256451   -11257.257858  0.000367 -5.411001  0.010958
   scf:   17   -11257.256747   -11257.256615   -11257.258021  0.000887 -5.412214  0.008934
   scf:   18   -11257.256677   -11257.256647   -11257.258054  0.000240 -5.412432  0.008797
   scf:   19   -11257.256734   -11257.256695   -11257.258101  0.000555 -5.413041  0.005592
   scf:   20   -11257.256711   -11257.256703   -11257.258109  0.000137 -5.413190  0.005041
   scf:   21   -11257.256728   -11257.256717   -11257.258124  0.000265 -5.413418  0.001932
   scf:   22   -11257.256722   -11257.256720   -11257.258126  0.000077 -5.413281  0.001265
   scf:   23   -11257.256721   -11257.256721   -11257.258127  0.000057 -5.413195  0.001279
   scf:   24   -11257.256725   -11257.256723   -11257.258129  0.000066 -5.413202  0.000868
   scf:   25   -11257.256726   -11257.256724   -11257.258131  0.000086 -5.413294  0.000835
   scf:   26   -11257.256726   -11257.256725   -11257.258132  0.000060 -5.413353  0.000925
   scf:   27   -11257.256727   -11257.256726   -11257.258133  0.000060 -5.413400  0.000504
   scf:   28   -11257.256726   -11257.256726   -11257.258133  0.000019 -5.413406  0.000422
   scf:   29   -11257.256726   -11257.256726   -11257.258133  0.000018 -5.413399  0.000357
   scf:   30   -11257.256726   -11257.256726   -11257.258133  0.000013 -5.413394  0.000309
   scf:   31   -11257.256726   -11257.256726   -11257.258133  0.000011 -5.413389  0.000280
   scf:   32   -11257.256726   -11257.256726   -11257.258133  0.000007 -5.413377  0.000299

SCF Convergence by DM+H criterion
max |DM_out - DM_in|         :     0.0000065258
max |H_out - H_in|      (eV) :     0.0002993157
SCF cycle converged after 32 iterations

Using DM_out to compute the final energy and forces
No. of atoms with KB's overlaping orbs in proc 0. Max # of overlaps:     109     334

siesta: E_KS(eV) =           -11257.2567

siesta: E_KS - E_eggbox =    -11257.2567

siesta: Atomic forces (eV/Ang):
   Tot    0.002703   -0.000798   -0.004276
   Max    3.882990
   Res    1.259966    sqrt( Sum f_i^2 / 3N )
   Max    3.882990    constrained

Stress tensor Voigt[x,y,z,yz,xz,xy] (kbar):      454.65      341.50      444.61       45.02       13.88        7.45
(Free)E + p*V (eV/cell)   -11398.3786
Target enthalpy (eV/cell)   -11257.2581

siesta: Program's energy decomposition (eV):
siesta: Ebs     =     -3094.474778
siesta: Eions   =     19384.568761
siesta: Ena     =      5039.834521
siesta: Ekin    =      6706.148668
siesta: Enl     =      -330.602240
siesta: Eso     =         0.000000
siesta: Edftu   =         0.000000
siesta: DEna    =       144.671593
siesta: DUscf   =         4.977371
siesta: DUext   =         0.000000
siesta: Ex      =     -3097.509288
siesta: Ec      =      -340.208591
siesta: Exc     =     -3437.717879
siesta: EbV     =         0.000000
siesta: eta*DQ  =         0.000000
siesta: Emadel  =         0.000000
siesta: Emeta   =         0.000000
siesta: Emolmec =         0.000000
siesta: Ekinion =         0.000000
siesta: Eharris =    -11257.256726
siesta: Etot    =    -11257.256726
siesta: FreeEng =    -11257.258133

siesta: Final energy (eV):
siesta:  Band Struct. =   -3094.474778
siesta:       Kinetic =    6706.148668
siesta:       Hartree =    1366.713691
siesta:         Edftu =       0.000000
siesta:       Eso     =       0.000000
siesta:    Ext. field =       0.000000
siesta:         Exch. =   -3097.509288
siesta:         Corr. =    -340.208591
siesta:     Bulk bias =       0.000000
siesta:   Exch.-corr. =   -3437.717879
siesta:  Ion-electron =   -8691.526795
siesta:       Ion-ion =   -7200.874411
siesta:       Ekinion =       0.000000
siesta: D3 dispersion =       0.000000
siesta:         Total =  -11257.256726
siesta:         Fermi =      -5.413377

siesta: Atomic forces (eV/Ang):
siesta:      1   -0.449045    1.183039   -1.158352
siesta:      2    0.798590    0.357512   -0.789454
siesta:      3    0.550448   -0.345705   -1.997397
siesta:      4    0.526633    0.490624    0.297352
siesta:      5   -1.830302   -0.063634   -0.389912
siesta:      6   -0.121026    0.914567   -0.579922
siesta:      7    0.547102    0.553954    0.408857
siesta:      8   -0.020877    0.225365   -0.739897
siesta:      9    0.053932    0.697408   -2.323601
siesta:     10    0.935825    0.224301   -0.345050
siesta:     11   -2.101919   -1.023997    0.510107
siesta:     12    0.163857    0.837475    1.730432
siesta:     13    1.531937   -1.177557    0.945259
siesta:     14    0.617055    0.777830    0.190647
siesta:     15   -0.820621   -0.072117    0.314508
siesta:     16    1.289519   -0.465873    1.629041
siesta:     17    0.307751   -0.705698    0.344676
siesta:     18    0.272167    0.173998    0.170998
siesta:     19   -1.462046    0.377528    1.593533
siesta:     20    1.153185    1.064909   -0.329092
siesta:     21   -0.909964    0.997921    0.717180
siesta:     22    0.449649   -0.590092    1.525630
siesta:     23   -0.937561   -0.643705    2.351382
siesta:     24    0.082583   -0.335587   -1.366318
siesta:     25    1.299096   -0.168357    1.145218
siesta:     26   -1.329539   -0.035462   -2.364728
siesta:     27   -0.853609    0.010233   -0.429098
siesta:     28    0.019307    0.589736   -1.635388
siesta:     29    0.144296    0.024577    3.653705
siesta:     30   -2.777268    3.882990   -1.301330
siesta:     31   -1.268935   -0.306906   -2.471745
siesta:     32    1.416408   -2.840150   -2.108287
siesta:     33    0.289711   -1.225843    0.189522
siesta:     34    0.862423    0.418365    0.483076
siesta:     35    0.016422    1.432258   -2.975196
siesta:     36   -1.680151    0.437242    0.008476
siesta:     37   -0.205877   -1.860666   -2.870851
siesta:     38    0.584782   -1.428377    1.030095
siesta:     39   -2.718824    0.306095   -1.521823
siesta:     40   -0.052402   -1.816471    1.766105
siesta:     41    0.531218    0.419835    2.861343
siesta:     42    3.086231   -0.958409    1.866299
siesta:     43    0.787306    0.502489   -2.791754
siesta:     44    1.272626    1.612451   -0.132668
siesta:     45    1.054208    0.022613    0.976090
siesta:     46    0.447102    0.607663    0.666112
siesta:     47    0.630056   -1.140057   -1.420238
siesta:     48    0.624668    1.935006    3.831518
siesta:     49    0.613913   -0.156457   -2.078278
siesta:     50   -1.370179    1.966316    2.189632
siesta:     51   -1.700244   -1.471647    0.009184
siesta:     52   -0.206878    0.509008    1.446131
siesta:     53   -0.074787   -1.499692    0.026308
siesta:     54    1.462527    0.749291   -1.310874
siesta:     55    1.189002   -1.815227   -0.070883
siesta:     56   -0.459825   -0.733738   -2.121699
siesta:     57    0.229875    0.568579   -0.492548
siesta:     58   -0.248186    1.219408    0.708345
siesta:     59   -1.197763    0.833195    0.025991
siesta:     60   -0.680721    0.390600    0.188986
siesta:     61   -0.767370   -1.660404    0.826877
siesta:     62   -0.486589   -1.740891    1.210521
siesta:     63    1.321605   -0.620894    0.103665
siesta:     64   -0.427802   -0.411562    0.169308
siesta: ----------------------------------------
siesta:    Tot    0.002703   -0.000798   -0.004276

siesta: Stress tensor (static) (eV/Ang**3):
siesta:     0.283772    0.004650    0.008662
siesta:     0.004650    0.213149    0.028096
siesta:     0.008662    0.028096    0.277506

siesta: Cell volume =        546.676793 Ang**3

siesta: Pressure (static):
siesta:                Solid            Molecule  Units
siesta:          -0.00281152         -0.00260690  Ry/Bohr**3
siesta:          -0.25814232         -0.23935411  eV/Ang**3
siesta:        -413.58960079       -383.48757002  kBar
(Free)E+ p_basis*V_orbitals  =      -11221.897123
(Free)Eharris+ p_basis*V_orbitals  =      -11221.897123

cite: Please see "aiida.bib" for an exhaustive BiBTeX file.
cite: Please clearly indicate Siesta version in published work: NO_VERSION_LABEL_AVAILABLE
cite: This calculation has made use of the following articles
cite: which are encouraged to be cited in a published work.
        Primary SIESTA paper
          DOI: www.doi.org/10.1088/0953-8984/14/11/302

 global_section                   1    3729.611  100.00
  siesta                          1    3729.611  100.00
   Setup                          1       0.273    0.01
    bands                         1       0.000    0.00
    KSV_init                      1       0.000    0.00
   IterGeom                       1    3729.073   99.99
    geom_init                     1       7.041    0.19
     state_init                   1       0.831    0.02
      hsparse                     1       0.025    0.00
      overlap                     1       0.296    0.01
     Setup_H0                     1       4.699    0.13
      naefs                       1       0.003    0.00
      MolMec                      1       0.000    0.00
      kinefsm                     1       0.296    0.01
      nlefsm                      1       1.427    0.04
      DHSCF_Init                  1       2.972    0.08
       DHSCF1                     1       0.071    0.00
        INITMESH                  1       0.000    0.00
       DHSCF2                     1       2.901    0.08
        REMESH                    1       1.387    0.04
         INITMESH                 2       1.074    0.03
          SPLOAD                  2       1.073    0.03
        REORD                     2       0.000    0.00
        PHION                     1       1.241    0.03
        COMM_BSC                  1       0.000    0.00
        POISON                    1       0.011    0.00
         fft                      2       0.010    0.00
     setup_H                      1       1.511    0.04
      DHSCF                       1       1.511    0.04
       DHSCF3                     1       1.511    0.04
        rhoofd                    1       0.879    0.02
        COMM_BSC                  2       0.001    0.00
        POISON                    1       0.010    0.00
         fft                      2       0.009    0.00
        XC                        1       0.077    0.00
         COMM_BSC                 2       0.001    0.00
         GXC-CellXC               1       0.076    0.00
          gridxc@cellXC           1       0.076    0.00
        vmat                      1       0.542    0.01
    IterSCF                      32    3715.435   99.62
     compute_dm                  32    3666.551   98.31
      diagon                     32    3666.537   98.31
       c-eigval                9472    1710.147   45.85
        c-buildHS              9472       8.719    0.23
        cdiag                  9472    1701.417   45.62
         cdiag1                9472      96.553    2.59
         cdiag2                9472     334.660    8.97
         cdiag3                9472    1251.124   33.55
       c-eigvec                9472    1773.097   47.54
        cdiag                  9472    1764.920   47.32
         cdiag1                9472      96.946    2.60
         cdiag2                9472     335.812    9.00
         cdiag3                9472    1253.535   33.61
         cdiag4                9472      65.030    1.74
       c-buildD                9472     181.989    4.88
     setup_H                     32      48.121    1.29
      DHSCF                      32      47.967    1.29
       DHSCF3                    32      47.967    1.29
        rhoofd                   32      27.037    0.72
        COMM_BSC                 64       1.548    0.04
        POISON                   32       0.530    0.01
         fft                     64       0.504    0.01
        XC                       32       2.567    0.07
         COMM_BSC                64       0.041    0.00
         GXC-CellXC              32       2.524    0.07
          gridxc@cellXC          32       2.524    0.07
        vmat                     32      16.238    0.44
     MIXER                       31       0.131    0.00
    PostSCF                       1       6.596    0.18
     naefs                        1       0.002    0.00
     kinefsm                      1       0.022    0.00
     nlefsm                       1       0.107    0.00
     DHSCF                        1       5.640    0.15
      DHSCF3                      1       1.507    0.04
       rhoofd                     1       0.850    0.02
       COMM_BSC                   2       0.060    0.00
       POISON                     1       0.010    0.00
        fft                       2       0.009    0.00
       XC                         1       0.084    0.00
        COMM_BSC                  2       0.001    0.00
        GXC-CellXC                1       0.083    0.00
         gridxc@cellXC            1       0.083    0.00
       vmat                       1       0.501    0.01
      DHSCF4                      1       4.133    0.11
       REORD                     10       0.001    0.00
       COMM_BSC                   2       0.016    0.00
       dfscf                      1       3.931    0.11
     overfsm                      1       0.017    0.00
     MolMec                       1       0.000    0.00
     writeHSX                     1       0.032    0.00
    state_analysis                1       0.001    0.00
    siesta_move                   1       0.000    0.00
   Analysis                       1       0.257    0.01
    optical                       1       0.000    0.00

>> End of run:  13-APR-2024  13:40:01
Job completed